$molecule
0 1
 C        -3.22340849880000    1.54317487060000   -0.51080681940000
 C        -2.12896284340000    1.65651107790000    0.22767588280000
 C        -0.97270900080000    0.77746080190000    0.15726085670000
 C         0.36112652520000    1.24593088710000    0.22885126750000
 C         1.17650344420000    0.16085806840000    0.03968230660000
 C         2.64122200110000    0.05721979070000    0.00496945500000
 O         3.37250110720000    0.99820673950000    0.15358200870000
 O         3.11171057430000   -1.18527501560000   -0.20792526250000
 O         0.42285149070000   -0.95509640660000   -0.13135617510000
 C        -0.88009151340000   -0.59319263290000   -0.05099086600000
 C        -1.82788501280000   -1.67940729360000   -0.12009448150000
 C        -3.09121041270000   -1.65049952140000    0.29165497330000
 H        -4.02446723760000    2.25842748360000   -0.44017589010000
 H        -3.35189456150000    0.74201840150000   -1.21891879170000
 H        -2.00789407960000    2.49960924120000    0.89591669590000
 H         0.68489130780000    2.25461533780000    0.38249434080000
 H         2.39071972200000   -1.82456584650000   -0.30362758200000
 H        -1.40096703340000   -2.59803451130000   -0.50312176150000
 H        -3.53529420060000   -0.76631808240000    0.71295037410000
 H        -3.71340645940000   -2.52549165550000    0.22614281320000
$end

$rem
 BASIS = 6-31G*
 GUI = 2
 METHOD = B3LYP
 PRINT_ORBITALS false
 MOLDEN_FORMAT false
$end