$molecule
0 1
 C           -1.41188234660000        3.40850069160000       -0.06157347470000
 C           -2.11603643820000        2.28880167500000        0.04884752660000
 C           -1.59510539990000        0.92564973060000        0.03102130920000
 C           -2.49952243310000       -0.13756856550000        0.01279632560000
 C           -2.06834985900000       -1.45447610410000       -0.00681820470000
 C           -3.04616424330000       -2.58983340260000       -0.04190544770000
 C           -0.70512323550000       -1.71022266160000       -0.00463231410000
 C            0.22525545240000       -0.67025260630000        0.01646914830000
 C            1.63755005850000       -1.02322281210000        0.02029495000000
 C            2.69121017550000       -0.22149646960000        0.00018875690000
 F            2.71426739050000        1.10637088450000       -0.02818016280000
 F            3.94675702710000       -0.67060122420000        0.00390949730000
 C           -0.23184782880000        0.64477264460000        0.03571554350000
 H           -1.89035874550000        4.37268137840000       -0.04085080280000
 H           -0.34227301190000        3.41759392720000       -0.18091400250000
 H           -3.19239972110000        2.35509404550000        0.15356542110000
 H           -3.55999499920000        0.07329041590000        0.01182928520000
 H           -4.05668585000000       -2.24059382080000        0.15337798040000
 H           -2.78542222020000       -3.34347071720000        0.69884691950000
 H           -3.03076411240000       -3.06644655560000       -1.02201114700000
 H           -0.35844638410000       -2.73373086920000       -0.01799249420000
 H            1.86904352660000       -2.07872394450000        0.03730594240000
 H            0.47232092370000        1.45760217490000        0.06367387360000
$end

$rem
 BASIS = 6-31G*
 GUI = 2
 METHOD = B3LYP
 PRINT_ORBITALS false
 MOLDEN_FORMAT false
$end