$molecule
0 1
 C         3.83478139600000    1.11530623000000   -0.14013682500000
 C         3.17924968580000   -0.01412931030000    0.10095478960000
 C         1.73770648160000   -0.21630645620000    0.05486830510000
 C         1.22404318150000   -1.49661179880000    0.26878741270000
 C        -0.13340141980000   -1.72602871500000    0.23091076190000
 C        -1.03945203490000   -0.69372735550000   -0.01494222770000
 C        -2.47508812590000   -0.97277582050000   -0.03076302180000
 C        -3.01711319930000   -2.11043157200000   -0.44509869920000
 C        -0.53763078600000    0.59826528270000   -0.23022107490000
 C        -1.44244878020000    1.77349976860000   -0.48906651890000
 C        -1.82054878430000    2.46482327170000    0.82298308840000
 C         0.82962975780000    0.81188675630000   -0.19251838500000
 H         4.90877162340000    1.16219841750000   -0.08209156000000
 H         3.33919745000000    2.03293887750000   -0.40699437200000
 H         3.74642149240000   -0.90161334810000    0.35669925710000
 H         1.90088534710000   -2.31555401840000    0.46890333680000
 H        -0.51046250840000   -2.72037252260000    0.41938779950000
 H        -3.12187705030000   -0.18134924560000    0.32286463110000
 H        -2.42354255800000   -2.92047835090000   -0.83492116850000
 H        -4.08205695780000   -2.26907176220000   -0.42585093790000
 H        -2.34386188720000    1.45442779270000   -1.01385123570000
 H        -0.92360469680000    2.49129031870000   -1.12842638210000
 H        -2.33891146350000    1.77683022800000    1.48719271690000
 H        -2.46902606160000    3.31706141760000    0.63148271770000
 H        -0.92661635310000    2.81625673260000    1.33363311700000
 H         1.19620116690000    1.81342827560000   -0.36246049730000
$end

$rem
 BASIS = 6-31G*
 GUI = 2
 METHOD = B3LYP
 PRINT_ORBITALS false
 MOLDEN_FORMAT false
$end