$molecule
0 1
 C        -2.98356445790000   -3.17073112700000   -0.55820656570000
 C        -1.72345089940000   -2.75721777030000   -0.50211645400000
 C        -1.26020859250000   -1.39610861510000   -0.25363967680000
 C        -2.12508719740000   -0.32181704470000   -0.05332052380000
 C        -1.65497845370000    0.96736564770000    0.18247022160000
 C        -2.53998116730000    2.10834906690000    0.39502603710000
 C        -3.86723574550000    2.09610007530000    0.40922392060000
 C        -0.27173526300000    1.18053933500000    0.21673683990000
 C         0.58686334900000    0.12280326620000    0.01900933200000
 S         2.38102410870000    0.27410163550000    0.03976759630000
 C         2.77519120990000    2.02167303040000    0.35770103780000
 O         2.87458786250000   -0.50246053170000    1.14522241950000
 O         2.86514543860000   -0.06039605900000   -1.27264680440000
 C         0.11440846350000   -1.15174921240000   -0.21389297490000
 H        -3.22268532060000   -4.20262472230000   -0.74874119240000
 H        -3.82464510640000   -2.51325304840000   -0.41966045910000
 H        -0.92769897530000   -3.47588503740000   -0.64982466330000
 H        -3.18828235250000   -0.49289041790000   -0.08296771760000
 H        -2.02605085980000    3.04813384340000    0.55596390200000
 H        -4.44734828250000    1.20227898510000    0.25884897680000
 H        -4.43055831630000    2.99782172740000    0.57630186680000
 H         0.10688908560000    2.17425798330000    0.39824549450000
 H         2.37801929380000    2.29812623470000    1.32546527470000
 H         2.36722050570000    2.62260444870000   -0.44428143310000
 H         3.85641888160000    2.08771300690000    0.36314352030000
 H         0.82957243960000   -1.94580854690000   -0.36269364830000
$end

$rem
 BASIS = 6-31G*
 GUI = 2
 METHOD = B3LYP
 PRINT_ORBITALS false
 MOLDEN_FORMAT false
$end