$molecule
0 1
 C        -3.69903734490000    0.14093716720000    0.00406416670000
 C        -2.55717113330000    0.81756776210000   -0.00134830020000
 C        -1.23006871590000    0.23550208480000   -0.00154810970000
 C        -0.89867527620000   -1.09742584200000   -0.00107260660000
 S         0.79738055410000   -1.31659550880000   -0.00057300190000
 C         0.97071102300000    0.44494603280000   -0.00091960730000
 C         2.25376005710000    1.09156439120000    0.00016071820000
 C         3.41964017430000    0.45394275420000    0.00307806370000
 N        -0.15562469380000    1.06578054710000   -0.00173874450000
 H        -4.64868233640000    0.64674231560000    0.00412435560000
 H        -3.73184024100000   -0.93535202290000    0.00884272110000
 H        -2.55440723950000    1.89851296060000   -0.00566563680000
 H        -1.54894947580000   -1.94801182690000   -0.00120068800000
 H         2.20028699400000    2.17146297970000   -0.00125163740000
 H         3.47414698740000   -0.62276078880000    0.00459519090000
 H         4.35385614410000    0.98666210200000    0.00417416620000
$end

$rem
 BASIS = 6-31G*
 GUI = 2
 METHOD = B3LYP
 PRINT_ORBITALS false
 MOLDEN_FORMAT false
$end