$molecule
0 1
 C         2.95359104110000    2.55316079440000    0.25790056410000
 C         2.74093558840000    1.31234233680000   -0.16312473260000
 C         1.47071873850000    0.62194060490000   -0.07206074620000
 C         0.20142844460000    1.22311666910000   -0.01380056260000
 C        -0.74545813480000    0.21468484730000   -0.02799630350000
 C        -2.19270849320000    0.30666287060000    0.01466831170000
 O        -2.83490178270000    1.32665045150000    0.07903212870000
 O        -2.76519094210000   -0.92536459640000   -0.02580339650000
 C        -4.18255461480000   -0.93807427950000    0.01166708250000
 N        -0.08034767970000   -0.97601776650000   -0.09739004030000
 C         1.26046236370000   -0.76483284500000   -0.11274716720000
 C         2.17199517830000   -1.88039695510000   -0.14846546970000
 C         3.44138085060000   -1.87010452170000    0.24926194040000
 H         3.91047237660000    3.03252803360000    0.14370709680000
 H         2.18315879960000    3.12869140580000    0.74164660650000
 H         3.54228819250000    0.75461609330000   -0.63018402700000
 H        -0.01412684990000    2.27166917940000    0.00941916000000
 H        -4.47902173910000   -1.98368914190000   -0.01605182870000
 H        -4.58991309140000   -0.40053847140000   -0.84716503250000
 H        -4.54248627740000   -0.46065338220000    0.92541920590000
 H        -0.53683748260000   -1.87384285940000   -0.10016791350000
 H         1.73776442660000   -2.80446928550000   -0.51450605230000
 H         3.90253528740000   -0.99489589700000    0.67040312320000
 H         4.05306797160000   -2.75305752350000    0.18192252950000
$end

$rem
 BASIS = 6-31G*
 GUI = 2
 METHOD = B3LYP
 PRINT_ORBITALS false
 MOLDEN_FORMAT false
$end