$molecule
0 1
 C         3.51777888780000    1.27265752110000    0.54270779730000
 C         2.37105686770000    1.54168782400000   -0.06629399620000
 C         1.19083806240000    0.69829237170000   -0.06083977890000
 C        -0.10607393650000    1.18165266610000   -0.06845366130000
 N        -0.93899616670000    0.13098145110000    0.05176148940000
 C        -2.39441434680000    0.12780386240000    0.01958601300000
 C        -2.83874755580000    0.06964831360000   -1.44669684820000
 C        -2.88267435680000   -1.11117231750000    0.76947225540000
 C        -2.93152931280000    1.39226579690000    0.69218337550000
 N        -0.26592074160000   -1.01030652040000    0.10646093580000
 C         1.02665096840000   -0.71194559190000    0.03844575840000
 C         1.97817222650000   -1.80535736660000    0.00037124380000
 C         3.16999417660000   -1.77854341340000   -0.58055705210000
 H         4.34209828510000    1.96527203300000    0.52140503620000
 H         3.67117632720000    0.35562374870000    1.08544319090000
 H         2.24044443510000    2.49186338810000   -0.57251096680000
 H        -0.45197038320000    2.19345725850000   -0.12688853310000
 H        -2.45572665100000   -0.83446123440000   -1.91369751420000
 H        -2.45884014240000    0.92974376170000   -1.99452596410000
 H        -3.92347131830000    0.06638117340000   -1.51158641590000
 H        -2.44198994890000   -2.00289176520000    0.33470641070000
 H        -3.96544807920000   -1.17873874340000    0.71121864630000
 H        -2.58707972510000   -1.05923066530000    1.81430163170000
 H        -2.72401597610000    2.27846540070000    0.09774883780000
 H        -2.48755261290000    1.51750305980000    1.67735296290000
 H        -4.00911461580000    1.31013736600000    0.80751203960000
 H         1.60206753210000   -2.72076998290000    0.43888793150000
 H         3.55185116630000   -0.89477977000000   -1.06249000680000
 H         3.80426674160000   -2.64863012970000   -0.59809119620000
$end

$rem
 BASIS = 6-31G*
 GUI = 2
 METHOD = B3LYP
 PRINT_ORBITALS false
 MOLDEN_FORMAT false
$end