$molecule
0 1
 C         3.62633817330000   -0.02060302570000    0.42800841800000
 C         2.53923085950000   -0.45367797810000   -0.19659419150000
 C         1.21049832790000    0.14822236870000   -0.08115246130000
 C         1.07452595060000    1.52425738020000    0.06981454310000
 C        -0.17222692780000    2.11597294440000    0.13875720840000
 C        -1.30604550300000    1.33262913160000    0.03816713750000
 C        -1.21610360370000   -0.04709832060000   -0.11338315670000
 C        -2.42806548760000   -0.85344172510000   -0.26243846170000
 C        -3.58582562820000   -0.60191858480000    0.33402501430000
 C         0.05445070680000   -0.65221216800000   -0.14997621810000
 N         0.16649379260000   -2.02554520000000   -0.26580656960000
 H         4.58605893550000   -0.48756057420000    0.28462784410000
 H         3.59804912180000    0.80933906740000    1.11399370800000
 H         2.61573830750000   -1.30482125780000   -0.86331343820000
 H         1.96402610020000    2.13489042910000    0.10808703810000
 H        -0.25986368790000    3.18633018020000    0.24961871030000
 H        -2.28248954530000    1.79298942420000    0.05162107660000
 H        -2.35052277730000   -1.70354555880000   -0.93038277650000
 H        -3.70785187350000    0.21953755120000    1.01997197570000
 H        -4.45465056790000   -1.21572480770000    0.16651091370000
 H        -0.64100749570000   -2.55802384690000    0.01191701670000
 H         1.04054447270000   -2.42293908040000    0.03556837650000
$end

$rem
 BASIS = 6-31G*
 GUI = 2
 METHOD = B3LYP
 PRINT_ORBITALS false
 MOLDEN_FORMAT false
$end