$molecule
0 1
 C        -2.42060210710000   -1.85205640630000   -0.46238265460000
 C        -2.40862701770000   -0.71289219010000    0.21655216760000
 C        -1.35914602520000    0.30367985620000    0.14778076970000
 C        -1.72437860500000    1.65129360750000    0.21814239650000
 N        -0.87666753430000    2.65165118670000    0.09068807140000
 C         0.39754083450000    2.37250727900000   -0.09522963310000
 C         0.91459066390000    1.07431342820000   -0.13987120900000
 C         2.35803228050000    0.88754684960000   -0.26487327230000
 C         3.07245085960000   -0.03040180700000    0.36932415590000
 C         0.00311198470000    0.01703818460000   -0.02346165590000
 C         0.48616568460000   -1.39970057340000   -0.11036583150000
 O         1.01827731910000   -1.86802608420000   -1.07418185850000
 O         0.28624353820000   -2.13540095370000    1.00489891950000
 H        -3.24676188790000   -2.53802655660000   -0.38678759190000
 H        -1.62652014630000   -2.13714436350000   -1.13129908270000
 H        -3.25685755140000   -0.44213984460000    0.83383325950000
 H        -2.76055886670000    1.92803311480000    0.36237272280000
 H         1.05629691570000    3.22525176460000   -0.19286395040000
 H         2.85271935390000    1.61681106080000   -0.89332713140000
 H         2.63577946010000   -0.75053097420000    1.04062041680000
 H         4.13942891470000   -0.09197509330000    0.24430006170000
 H        -0.20478227810000   -1.65343366350000    1.68327658470000
$end

$rem
 BASIS = 6-31G*
 GUI = 2
 METHOD = B3LYP
 PRINT_ORBITALS false
 MOLDEN_FORMAT false
$end