$molecule
0 1
 C         4.06844492670000    1.33332409700000    0.52936292000000
 C         3.68115757870000    0.08816618760000    0.27643131450000
 C         2.31250770880000   -0.37165792900000    0.08595099890000
 C         2.07123432020000   -1.72704651800000   -0.15992261280000
 C         0.79456440550000   -2.21237619380000   -0.35054350920000
 C        -0.31164100450000   -1.35930487040000   -0.30226664010000
 C        -1.68030575390000   -1.80971142270000   -0.51051266980000
 C        -2.11167027710000   -3.04952527310000   -0.30960763100000
 C        -0.05583072310000   -0.01156127380000   -0.05906799200000
 S        -1.47745714380000    1.05233207340000    0.03231473290000
 O        -2.03112993760000    1.32941962320000   -1.24689079280000
 O        -2.32381395870000    0.71814018000000    1.12229907570000
 F        -0.72187188150000    2.45079386540000    0.48362418130000
 C         1.20855070670000    0.48580516200000    0.13431526720000
 H         5.10913056630000    1.57657744980000    0.65589319070000
 H         3.37834501920000    2.15385553340000    0.62148362750000
 H         4.42984745290000   -0.69027477790000    0.19844013780000
 H         2.90862175750000   -2.40850002370000   -0.20579949250000
 H         0.64584820500000   -3.26040500550000   -0.55798745910000
 H        -2.36655592840000   -1.04030492830000   -0.83604134180000
 H        -1.46747830310000   -3.83435308330000    0.05048516630000
 H        -3.13931278370000   -3.31746791220000   -0.47984052260000
 H         1.34021496470000    1.53718628630000    0.32214122910000
$end

$rem
 BASIS = 6-31G*
 GUI = 2
 METHOD = B3LYP
 PRINT_ORBITALS false
 MOLDEN_FORMAT false
$end