$molecule
0 1
 C         0.63753781720000   -3.99116435080000   -0.13445420940000
 C         1.38898855620000   -2.90154590500000   -0.02935041230000
 C         0.91353879980000   -1.52549691120000    0.00285518080000
 C        -0.42570048330000   -1.16676488060000   -0.04258345840000
 C        -0.84481286000000    0.16016306780000    0.00628419510000
 C        -2.28208290040000    0.46045989340000    0.01806972950000
 O        -2.77468095130000    1.57021079030000    0.11680532400000
 O        -3.04955028020000   -0.63745078080000   -0.07741807700000
 C        -4.44998850180000   -0.41481204500000   -0.06036817480000
 C         0.10680252820000    1.20953841620000    0.07685518110000
 N        -0.28599024530000    2.49807120180000    0.11799600850000
 C         1.48258661120000    0.86982494640000    0.09963955540000
 C         2.55221059940000    1.87035157880000    0.16238689490000
 C         2.59611580560000    3.00701663870000   -0.52042867380000
 C         1.83142203530000   -0.46994273180000    0.08735641420000
 F         3.14896711610000   -0.77015464540000    0.13596773700000
 H         1.08115816040000   -4.97141184960000   -0.15035846350000
 H        -0.43560565970000   -3.95681352270000   -0.20947326470000
 H         2.46355186290000   -3.00911910240000    0.03889261940000
 H        -1.17927254500000   -1.93310093450000   -0.10445523490000
 H        -4.91312251900000   -1.39139874620000   -0.17544150900000
 H        -4.74068726180000    0.24737402940000   -0.87879547430000
 H        -4.75148895030000    0.04358843380000    0.88407387740000
 H        -1.27815234280000    2.66857823020000    0.22252633310000
 H         0.38286016740000    3.20050047730000    0.38335007130000
 H         3.38835671170000    1.59713713880000    0.79452572510000
 H         1.83194945260000    3.29062770880000   -1.22488606690000
 H         3.43436897300000    3.67693635270000   -0.43078907070000
$end

$rem
 BASIS = 6-31G*
 GUI = 2
 METHOD = B3LYP
 PRINT_ORBITALS false
 MOLDEN_FORMAT false
$end