$molecule
0 1
 C         3.00858500690000    0.98888064590000   -0.00545844340000
 C         1.68562605680000    1.11386969700000    0.00460038940000
 C         0.75173524980000    0.01317763080000    0.00246873760000
 C         1.04517091860000   -1.38061585970000    0.00082130180000
 C        -0.15118670190000   -2.02164442660000   -0.00057784790000
 O        -1.16863746730000   -1.14685237250000   -0.00021482810000
 C        -0.63412147560000    0.09739645980000    0.00176060140000
 C        -1.50277320850000    1.24348267620000    0.00108344010000
 C        -2.83212996520000    1.17407324220000   -0.00340455620000
 H         3.65463997180000    1.84953835280000   -0.00309890340000
 H         3.49376480740000    0.02824449730000   -0.01697724310000
 H         1.24332641530000    2.10121102060000    0.01519470200000
 H         2.01305947960000   -1.83688784530000    0.00125889800000
 H        -0.40384705120000   -3.06391414510000   -0.00174334380000
 H        -1.00139140440000    2.20069399450000    0.00411789010000
 H        -3.34196591790000    0.22605186980000   -0.00678148280000
 H        -3.44352959050000    2.05890216010000   -0.00397625440000
$end

$rem
 BASIS = 6-31G*
 GUI = 2
 METHOD = B3LYP
 PRINT_ORBITALS false
 MOLDEN_FORMAT false
$end