$molecule
0 1
 C           -4.04985794430000        1.45498790470000        0.04861123650000
 C           -2.81646676260000        1.55990864170000       -0.42749763220000
 C           -1.76739247780000        0.55167238570000       -0.30125149780000
 C           -2.06331077600000       -0.79307456880000       -0.09060304190000
 C           -1.04480577310000       -1.72217444900000        0.00862659720000
 Cl          -1.43380730290000       -3.38431094030000        0.27944449510000
 C            0.28074538120000       -1.35175975370000       -0.12824583720000
 C            0.60384191940000       -0.01534773150000       -0.35339482170000
 C            1.97440393790000        0.42371798790000       -0.58523667080000
 C            3.08795524940000       -0.19190891150000       -0.22099691060000
 F            3.20071058420000       -1.31981230750000        0.46895969400000
 F            4.30401326860000        0.27530355990000       -0.49095035870000
 C           -0.42387992470000        0.94018260040000       -0.41907160200000
 O           -0.12129792840000        2.26726982510000       -0.62731164850000
 C            0.40141743360000        2.96206978660000        0.49828322590000
 C           -0.63102429890000        3.17073579370000        1.59988179250000
 H           -4.76960439520000        2.24406638450000       -0.08457191730000
 H           -4.38907232600000        0.59289233890000        0.59767591450000
 H           -2.50844049480000        2.45967977320000       -0.94236359830000
 H           -3.08975561810000       -1.11338230280000       -0.01800666360000
 H            1.05218977110000       -2.10211367430000       -0.08339639800000
 H            2.09387511490000        1.35303515620000       -1.12378769550000
 H            0.72984727970000        3.92338703700000        0.09576582830000
 H            1.27152831630000        2.42937400340000        0.90498173640000
 H           -1.49662680720000        3.70306777490000        1.21442431810000
 H           -0.18832216810000        3.75102972420000        2.40463071260000
 H           -0.96165668500000        2.21329316140000        1.99751465410000
$end

$rem
 BASIS = 6-31G*
 GUI = 2
 METHOD = B3LYP
 PRINT_ORBITALS false
 MOLDEN_FORMAT false
$end