$molecule
0 1
C           -3.62525760320000       -2.20999639460000        0.00235343570000
C           -3.47272992220000       -0.89194068500000        0.00065131640000
C           -2.20963400070000       -0.16081725630000       -0.00023172140000
C           -0.95715402350000       -0.77433812100000        0.00102400370000
C            0.19769853910000        0.00634414480000        0.00039214900000
C            1.48788293080000       -0.66796924420000        0.00232273520000
C            2.69451845660000       -0.12133080890000        0.00071321700000
F            3.00671046360000        1.16633152990000       -0.00330737540000
F            3.81510372270000       -0.83702086960000        0.00299823890000
C            0.04160618480000        1.39470814940000       -0.00174409740000
C           -1.24547036420000        1.90827893300000       -0.00301599940000
N           -2.33481525160000        1.16771379890000       -0.00221346770000
H           -4.60412829130000       -2.65767131410000        0.00307113300000
H           -2.79592767300000       -2.89715726170000        0.00300209390000
H           -4.33672624580000       -0.24174494480000       -0.00003423710000
H           -0.87609450230000       -1.84973320870000        0.00257421890000
H            1.46852137610000       -1.74832607200000        0.00551758750000
H            0.88750910870000        2.06035560060000       -0.00226965680000
H           -1.41102388180000        2.97792295060000       -0.00464921830000
$end

$rem
BASIS = 6-31G*
GUI = 2
METHOD = B3LYP
PRINT_ORBITALS false
MOLDEN_FORMAT false
$end
