$molecule
0 1
 C        -3.69859906320000   -1.85627630510000    0.03337011290000
 C        -3.41914581700000   -0.55816500750000    0.05099565010000
 C        -2.09149184470000    0.03571325660000    0.03357367880000
 C        -1.95041041450000    1.42807302030000   -0.03341905270000
 N        -0.79994044090000    2.05368745100000   -0.07232899150000
 C         0.34181214560000    1.36506188120000   -0.02784437510000
 C         1.57175778770000    2.13953066790000   -0.10692303100000
 C         1.57644830930000    3.46771671550000   -0.16661248080000
 C         0.32378719140000   -0.04478612720000    0.06639254200000
 C         1.55866988200000   -0.86272041520000    0.15196563950000
 O         2.62491084240000   -0.50553393950000    0.58886314290000
 O         1.35366938530000   -2.10455054450000   -0.32207585250000
 C         2.47297069780000   -2.97528802100000   -0.27356752820000
 C        -0.90611156330000   -0.69339120060000    0.08918781530000
 H        -4.71526104200000   -2.20920101560000    0.04531399960000
 H        -2.93599611650000   -2.61554496100000    0.00281054520000
 H        -4.23014716910000    0.15949144210000    0.07224328460000
 H        -2.82622608770000    2.06630920200000   -0.06011654210000
 H         2.49366784820000    1.57972463610000   -0.10108913850000
 H         0.65323838490000    4.02147735130000   -0.15500484030000
 H         2.49380371670000    4.02738320830000   -0.22596843000000
 H         2.13551490560000   -3.92685458490000   -0.67620773660000
 H         2.81889252280000   -3.09255227860000    0.75567980920000
 H         3.29218274710000   -2.57394579430000   -0.87387431850000
 H        -0.92606817800000   -1.76917743100000    0.16574998200000
$end

$rem
 BASIS = 6-31G*
 GUI = 2
 METHOD = B3LYP
 PRINT_ORBITALS false
 MOLDEN_FORMAT false
$end