$molecule
0 1
 C        -4.18212916070000   -0.98059362050000   -0.00122572490000
 C        -3.01478477660000   -1.61789825140000   -0.00166200310000
 C        -1.73262615390000   -0.96229459830000   -0.00113204190000
 C        -0.46897747600000   -1.49541647520000   -0.00241795460000
 C         0.43171779920000   -0.40125338650000   -0.00088426850000
 C         1.88663921470000   -0.56252090910000   -0.00182437300000
 O         2.44534221620000   -1.63248812080000   -0.00716343130000
 O         2.55365944440000    0.60759198940000    0.00384395800000
 C         3.96938673260000    0.50341314300000    0.00269790140000
 C        -0.35792097740000    0.74383821050000    0.00101226000000
 C        -0.00277368540000    2.13774290360000    0.00275531200000
 C        -0.89649331480000    3.12511209340000    0.00492987840000
 O        -1.65513049170000    0.39077083350000    0.00082807020000
 H        -5.11633815420000   -1.51318988570000   -0.00171864760000
 H        -4.23177766640000    0.09482173810000   -0.00018830090000
 H        -2.96429914410000   -2.69736829320000   -0.00249772420000
 H        -0.19500798480000   -2.52992044970000   -0.00403586950000
 H         4.34925005610000    1.52162795230000    0.02581165390000
 H         4.31127731990000   -0.01384015280000   -0.89623591890000
 H         4.30982637500000   -0.05411541070000    0.87774220920000
 H         1.05753163090000    2.33504548040000    0.00229144570000
 H        -1.95452715170000    2.92504958240000    0.00558375650000
 H        -0.59415556170000    4.15719310010000    0.00599507540000
$end

$rem
 BASIS = 6-31G*
 GUI = 2
 METHOD = B3LYP
 PRINT_ORBITALS false
 MOLDEN_FORMAT false
$end