$molecule
0 1
 C         3.92037203440000   -0.91648769910000    0.42615674640000
 C         3.08673044320000   -0.08397946070000   -0.18250560270000
 C         1.62601351510000   -0.15431841340000   -0.09649475470000
 C         1.00330310660000   -1.39009451180000   -0.03659610140000
 C        -0.38263192210000   -1.44062037770000   -0.01218710740000
 N        -1.23413585160000   -2.51987392640000    0.00134597420000
 C        -2.42482668330000   -2.01817983380000   -0.03668772820000
 N        -2.44281809890000   -0.65154776480000   -0.06567456710000
 C        -1.13419928720000   -0.24550114800000   -0.04835505870000
 C        -0.53979302690000    1.01579065910000   -0.09744038050000
 C        -1.33338905090000    2.24069507550000   -0.16767973170000
 C        -2.47410717030000    2.45192984050000    0.47815331550000
 C         0.86293833850000    1.04321306290000   -0.10818351940000
 N         1.51902623530000    2.26277183220000   -0.13986300550000
 H         4.98757498880000   -0.83869025510000    0.30522802810000
 H         3.56821629700000   -1.70146276580000    1.07389099500000
 H         3.48664215740000    0.70153580180000   -0.81301045710000
 H         1.58106399420000   -2.29925653950000   -0.04295980320000
 H        -3.32690757330000   -2.59940633100000   -0.03896259900000
 H        -3.24817444640000   -0.05491626520000   -0.14770386180000
 H        -0.94298345430000    3.01623934050000   -0.81683080900000
 H        -2.88293266180000    1.73478257810000    1.17119148810000
 H        -3.02547915370000    3.37013064730000    0.36599140360000
 H         0.98324355120000    3.05462158970000    0.17483437010000
 H         2.46712994000000    2.25626021680000    0.19762934350000
$end

$rem
 BASIS = 6-31G*
 GUI = 2
 METHOD = B3LYP
 PRINT_ORBITALS false
 MOLDEN_FORMAT false
$end