$molecule
0 1
 C        -4.28057146330000   -1.35294633930000   -0.37406306750000
 C        -3.61962441610000   -0.38297052660000    0.24300607830000
 C        -2.18093717810000   -0.14906686160000    0.12791688290000
 C        -1.31234436270000   -1.23172440660000    0.02334489270000
 C         0.06175769140000   -1.07581250020000   -0.01393014900000
 C         0.58186417960000    0.20342160540000    0.07691626410000
 O         1.95951198030000    0.50634125570000    0.07097800900000
 C         2.85157313300000   -0.45195533850000   -0.03033580160000
 F         2.82103820940000   -1.35179659780000    0.97109750290000
 F         2.76723655180000   -1.17676160630000   -1.16196504770000
 F         4.06727406730000    0.08715708870000   -0.01664723040000
 C        -0.25335847130000    1.30002521210000    0.18909841070000
 C        -1.63637228730000    1.14711072570000    0.19543538560000
 C        -2.45155567570000    2.35979007940000    0.24709786660000
 C        -3.60248501830000    2.54281679490000   -0.38603531870000
 H        -5.33828675130000   -1.49333737340000   -0.23211080980000
 H        -3.79842436300000   -2.02746495330000   -1.06181898790000
 H        -4.14894839760000    0.30158898340000    0.89359108170000
 H        -1.72171885520000   -2.22945034040000   -0.00818273080000
 H         0.69193989140000   -1.94631152030000   -0.09745797770000
 H         0.18906180980000    2.28156633620000    0.25153414420000
 H        -2.01862854130000    3.17368101000000    0.81540018980000
 H        -4.03970522890000    1.78236413580000   -1.01048576740000
 H        -4.13524771760000    3.47644473660000   -0.32222938060000
$end

$rem
 BASIS = 6-31G*
 GUI = 2
 METHOD = B3LYP
 PRINT_ORBITALS false
 MOLDEN_FORMAT false
$end