$molecule
0 1
 C        -4.02459502210000    0.30949661120000   -0.02234690210000
 C        -3.24073481510000   -0.75726321890000   -0.11637586380000
 C        -1.78498117600000   -0.69517994960000   -0.04430282220000
 C        -1.01992818990000   -1.86720553320000   -0.07300922570000
 C         0.35510572160000   -1.75781180350000   -0.04475746630000
 C         0.94578060140000   -0.49856387220000    0.01799968320000
 C         2.43556657580000   -0.42879460540000   -0.01439333550000
 N         2.94169988520000    0.50007487090000   -0.86491351380000
 O         3.14433101190000   -1.16587310640000    0.63587779740000
 C         0.09891630910000    0.62103019940000    0.11752723500000
 C         0.62038474240000    1.97196816470000    0.32888642640000
 C        -0.09895587800000    3.06508272530000    0.10994452710000
 N        -1.22038709280000    0.50102120520000    0.06598472010000
 H        -5.09717865040000    0.23764545150000   -0.07639976270000
 H        -3.59719795870000    1.28736867480000    0.11639581550000
 H        -3.65838697940000   -1.74670390870000   -0.24852357870000
 H        -1.49995870830000   -2.83256609410000   -0.12005965470000
 H         0.98982815670000   -2.63145416810000   -0.07822033650000
 H         2.35433141240000    1.07648026750000   -1.44027065150000
 H         3.94123087950000    0.56804882400000   -0.96341037710000
 H         1.63458866690000    2.03796551210000    0.69838036600000
 H        -1.10767107920000    2.99050132290000   -0.25774587730000
 H         0.29264160510000    4.05143106450000    0.29005917100000
$end

$rem
 BASIS = 6-31G*
 GUI = 2
 METHOD = B3LYP
 PRINT_ORBITALS false
 MOLDEN_FORMAT false
$end