$molecule
0 1
 C         2.71421619790000   -2.52458545200000    0.16407122330000
 C         2.50070244070000   -1.24260700840000   -0.10292269230000
 C         1.21617403730000   -0.54997110450000   -0.05427302740000
 C         1.20628099600000    0.84323312400000   -0.08654599030000
 C         0.00002299820000    1.53520649710000   -0.02323363490000
 C         0.00029597260000    2.94988341400000   -0.04497449380000
 N         0.00098945560000    4.09610284550000   -0.06253829850000
 C        -1.20634589800000    0.84571714830000    0.06130753620000
 C        -1.21640678130000   -0.54781679400000    0.07182798270000
 C        -2.50095633560000   -1.23864048600000    0.14174636680000
 C        -2.71482261300000   -2.52743858800000   -0.08972550760000
 C        -0.00018400570000   -1.22585961620000    0.01922850100000
 H         3.70155991030000   -2.94950367700000    0.10924078220000
 H         1.92802302670000   -3.19934382750000    0.45706372120000
 H         3.34097602180000   -0.61251400090000   -0.36729301950000
 H         2.13396170280000    1.39385954910000   -0.14955764460000
 H        -2.13395680840000    1.39813455780000    0.10735529160000
 H        -3.34077589040000   -0.60144825470000    0.39003681460000
 H        -1.92899393560000   -3.20985040350000   -0.36549204920000
 H        -3.70200878660000   -2.95079375160000   -0.02163574820000
 H        -0.00034478410000   -2.30339054370000    0.03599417770000
$end

$rem
 BASIS = 6-31G*
 GUI = 2
 METHOD = B3LYP
 PRINT_ORBITALS false
 MOLDEN_FORMAT false
$end