$molecule
0 1
 C         0.01232953700000   -2.55474753650000   -0.12301171170000
 C        -0.62340551570000   -1.69621269670000    0.66008310530000
 C        -1.07213816990000   -0.36747635770000    0.24240095790000
 C        -2.37238408200000    0.03153122940000    0.56633533300000
 N        -2.93074085530000    1.15633267000000    0.17041915550000
 C        -2.21708016150000    1.96917304920000   -0.59122916650000
 C        -0.91029157520000    1.70268265240000   -0.95847531630000
 C        -0.30493578120000    0.52549771560000   -0.51970275610000
 C         1.10864490540000    0.31524532730000   -0.84505283230000
 C         2.03311888300000   -0.08514084380000    0.00966839320000
 F         1.85243325070000   -0.39868013540000    1.28458691560000
 F         3.32016324880000   -0.21622485900000   -0.29805939870000
 H         0.27835083430000   -3.53945553430000    0.21979609590000
 H         0.28053698020000   -2.31247805880000   -1.13858441310000
 H        -0.91417999900000   -1.98583783010000    1.66128025660000
 H        -2.99769706010000   -0.61239564370000    1.17156963270000
 H        -2.71473865440000    2.87560634490000   -0.90797669320000
 H        -0.35299266760000    2.40768975520000   -1.55622237080000
 H         1.44052578810000    0.58817237410000   -1.83551348090000
$end

$rem
 BASIS = 6-31G*
 GUI = 2
 METHOD = B3LYP
 PRINT_ORBITALS false
 MOLDEN_FORMAT false
$end