$molecule
0 1
C            2.09797717800000       -3.77071865640000       -0.70521578350000
C            1.12209530530000       -3.24944655550000        0.02415979620000
C            0.71356548040000       -1.84143131760000        0.00273751030000
C           -0.62743625210000       -1.56114757930000       -0.09908929870000
C           -1.12492188900000       -0.24727458480000       -0.20973717380000
C           -2.56620187080000       -0.04768044100000       -0.32617696190000
C           -3.26013246640000        0.95647499890000        0.18593973320000
F           -2.81163017530000        1.94605994220000        0.93827213610000
F           -4.57887547730000        1.07354960200000        0.04636438580000
C           -0.20879701760000        0.77978083900000       -0.23921902420000
F           -0.62508492240000        2.04487887980000       -0.45031318690000
C            1.17671334390000        0.56316639900000       -0.08975499310000
C            2.09010269650000        1.63838484260000       -0.07382111080000
C            3.42329920660000        1.41148053370000        0.11978277680000
C            3.88946777520000        0.10580218020000        0.32683900850000
C            3.02598878840000       -0.95550321920000        0.29930619640000
C            1.64955012580000       -0.76854461240000        0.06041660130000
H            2.32487336380000       -4.82284144170000       -0.67261356370000
H            2.68857162060000       -3.17363110330000       -1.37987820610000
H            0.51279484180000       -3.89452659040000        0.64537751770000
H           -1.33845960910000       -2.37442158120000       -0.11542727680000
H           -3.12799670500000       -0.80371233090000       -0.85364447470000
H            1.71043555620000        2.64053527500000       -0.20332728420000
H            4.11995288260000        2.23604913170000        0.13380085690000
H            4.94006022930000       -0.05824314700000        0.51593889110000
H            3.39224738530000       -1.95323398120000        0.48386262790000
$end

$rem
BASIS = 6-31G*
GUI = 2
METHOD = B3LYP
PRINT_ORBITALS false
MOLDEN_FORMAT false
$end
