$molecule
0 1
 C        -1.33511709310000   -3.89366561500000   -0.63875357410000
 C        -2.02184268240000   -2.77050702350000   -0.46945249620000
 C        -1.46265347250000   -1.44202634360000   -0.24628370870000
 C        -2.32749860860000   -0.36198208060000   -0.07068472590000
 C        -1.86869105610000    0.93565749480000    0.14715728260000
 C        -2.84289202930000    2.00790287740000    0.32026117430000
 C        -2.58394338200000    3.29521785710000    0.51484600080000
 C        -0.48777388790000    1.15308453120000    0.19048719980000
 C         0.36935367810000    0.08970990830000    0.01715365600000
 S         2.16362018420000    0.24362740010000    0.05131118960000
 C         2.55585182990000    1.99636970980000    0.34373600190000
 O         2.64872483760000   -0.51470486990000    1.17320886460000
 O         2.66020380820000   -0.11275694040000   -1.25077958910000
 C        -0.09050640030000   -1.19251117860000   -0.19885155430000
 H        -1.83461541980000   -4.83380604980000   -0.79801395080000
 H        -0.25971066290000   -3.92608609820000   -0.62575621150000
 H        -3.10428220650000   -2.80488792870000   -0.49173384470000
 H        -3.39415426470000   -0.53754386810000   -0.10498096420000
 H        -3.87536955220000    1.68407693170000    0.27821919450000
 H        -1.58483746650000    3.69252192810000    0.56606272870000
 H        -3.37862198570000    4.01157125980000    0.63147465270000
 H        -0.10228890400000    2.14405508850000    0.35898081360000
 H         2.15075823620000    2.28874947220000    1.30352622090000
 H         2.15529308470000    2.58390293270000   -0.47182355300000
 H         3.63701955680000    2.06185902710000    0.35730580570000
 H         0.63781227890000   -1.97575643610000   -0.32694432590000
$end

$rem
 BASIS = 6-31G*
 GUI = 2
 METHOD = B3LYP
 PRINT_ORBITALS false
 MOLDEN_FORMAT false
$end