$molecule
0 1
 C           -4.48001099600000        0.68915934590000       -0.49222741760000
 C           -3.66942988190000       -0.05976594070000        0.24213831120000
 C           -2.21074531180000       -0.12283921010000        0.13604763960000
 C           -1.61969074830000       -1.38222942000000        0.24764466730000
 C           -0.25839499080000       -1.58846818380000        0.13237940760000
 C            0.30024755690000       -2.97447984750000        0.25789625000000
 C            0.56879779820000       -0.47313718550000       -0.07887162410000
 C            2.00716620150000       -0.65568937960000       -0.21954703160000
 C            2.95794725880000        0.24843134390000       -0.04349514390000
 F            2.82763289580000        1.51861092450000        0.32558126670000
 F            4.25564266110000       -0.01860220620000       -0.20635090760000
 C           -0.01538657580000        0.78889615340000       -0.15499170140000
 C           -1.38318074300000        0.99037188960000       -0.05304175680000
 C           -1.90536749530000        2.39418761110000       -0.11284354920000
 H           -5.54893618420000        0.64686556840000       -0.36611007660000
 H           -4.11911917800000        1.34579402900000       -1.26402989970000
 H           -4.09606560960000       -0.74717837790000        0.96375366620000
 H           -2.26345122160000       -2.23514315190000        0.41506782410000
 H           -0.49104054000000       -3.67985662370000        0.49846187470000
 H            1.05281423100000       -3.02076528020000        1.04355777670000
 H            0.76272856680000       -3.29140459050000       -0.67694184780000
 H            2.36106587840000       -1.63826398620000       -0.49171202660000
 H            0.61298356200000        1.65156369480000       -0.31183909640000
 H           -1.16110963100000        3.08504739790000        0.27765293380000
 H           -2.82157021530000        2.49618441410000        0.46340935470000
 H           -2.11500734890000        2.68112400110000       -1.14330802230000
$end

$rem
 BASIS = 6-31G*
 GUI = 2
 METHOD = B3LYP
 PRINT_ORBITALS false
 MOLDEN_FORMAT false
$end