$molecule
0 1
 C        -2.66673562630000   -3.23726129240000   -0.01849302730000
 C        -2.96175412670000   -1.94378775300000   -0.09122550180000
 C        -1.95635135350000   -0.91433272960000   -0.03613767830000
 N        -0.67128110040000   -1.06631046620000    0.08119220870000
 C        -0.14135294190000    0.19035334170000    0.08827103880000
 C         1.31239602290000    0.37128382480000    0.20915154740000
 O         1.88836459770000    1.43603948860000    0.21131934960000
 O         1.92529118220000   -0.80327832840000    0.32961642600000
 C         3.34641895780000   -0.78252711120000    0.43931139570000
 C         4.00876822830000   -0.68004257910000   -0.92793726850000
 C        -1.18231732120000    1.10741014660000   -0.03202720780000
 C        -1.32750931110000    2.53744815810000   -0.08836020120000
 C        -0.34413532320000    3.43103990560000   -0.03162585030000
 O        -2.32426176420000    0.38501593880000   -0.10922030540000
 H        -3.42979031550000   -3.99416449720000   -0.06054082180000
 H        -1.64464063300000   -3.55662607730000    0.08577928110000
 H        -3.97602694440000   -1.58531268180000   -0.19536366540000
 H         3.60453708540000   -1.72228593000000    0.93160033800000
 H         3.64488061710000    0.06415324950000    1.06726199900000
 H         3.67123931420000   -1.49102071400000   -1.56859666610000
 H         5.08776824320000   -0.73826340100000   -0.81641356260000
 H         3.75323539120000    0.26856772570000   -1.39375643940000
 H        -2.35975773110000    2.85055747070000   -0.18645259810000
 H         0.68454301010000    3.13348873900000    0.06526287640000
 H        -0.55802969220000    4.48475225770000   -0.08194133670000
$end

$rem
 BASIS = 6-31G*
 GUI = 2
 METHOD = B3LYP
 PRINT_ORBITALS false
 MOLDEN_FORMAT false
$end