$molecule
0 1
 C         3.28681368300000   -0.71728158920000    0.00735180890000
 C         1.98969847700000   -1.00925506820000   -0.00698373680000
 C         0.90911919450000   -0.04546371380000   -0.00295679530000
 C         1.09703991040000    1.36466829900000   -0.00288719000000
 C        -0.06253133250000    2.06123304360000   -0.00076362630000
 S        -1.44077428550000    1.03571100860000    0.00175571290000
 C        -0.43460340800000   -0.38492255020000   -0.00060515040000
 C        -1.02998967170000   -1.69223252190000    0.00170855290000
 C        -2.33924831810000   -1.93197455210000    0.00024817880000
 H         4.03212663480000   -1.49382289400000    0.00242801270000
 H         3.65758325950000    0.29274350910000    0.02520299150000
 H         1.69309749130000   -2.04911906680000   -0.02332408570000
 H         2.06220640850000    1.83670976790000   -0.00565392120000
 H        -0.20098466910000    3.12437600780000   -0.00074551600000
 H        -0.33777154240000   -2.52337277370000    0.00518032180000
 H        -3.05975056990000   -1.13080909920000   -0.00291873800000
 H        -2.72887441610000   -2.93441513480000    0.00223306820000
$end

$rem
 BASIS = 6-31G*
 GUI = 2
 METHOD = B3LYP
 PRINT_ORBITALS false
 MOLDEN_FORMAT false
$end