$molecule
0 1
 C         2.81756416030000    2.93407605720000   -0.00069622710000
 C         2.74770128010000    1.60709441720000    0.00000398740000
 C         1.52223113650000    0.84047751430000   -0.00011789950000
 C         0.20755529950000    1.33915752850000   -0.00057706320000
 C        -0.65253798250000    0.25599847610000   -0.00067550740000
 C        -2.10405016480000    0.23308503780000   -0.00005488500000
 O        -2.82576266730000    1.20046055110000    0.00089251790000
 O        -2.57565216570000   -1.04097754930000   -0.00134693710000
 C        -3.98814121090000   -1.16631121380000    0.00079278830000
 N         0.10452948680000   -0.87970842600000   -0.00026929170000
 C         1.42277840420000   -0.56224258170000    0.00035898330000
 C         2.47121641650000   -1.54561884420000    0.00132404640000
 C         2.30089275160000   -2.86697688000000    0.00007550500000
 H         3.76370551100000    3.44690266210000   -0.00001166760000
 H         1.93803935270000    3.55374522140000   -0.00108338250000
 H         3.66308789490000    1.03005837480000    0.00117677650000
 H        -0.09965599970000    2.36453910800000   -0.00082660700000
 H        -4.19995077240000   -2.23190164460000   -0.03943724140000
 H        -4.41578461250000   -0.65609116620000   -0.86472823480000
 H        -4.40674484500000   -0.72596760620000    0.90823053990000
 H        -0.28131465680000   -1.80891479780000    0.00059283880000
 H         3.47471962060000   -1.14455865570000    0.00330166360000
 H         1.32965821800000   -3.33299326140000   -0.00248359120000
 H         3.14193442530000   -3.53723375050000    0.00105600350000
$end

$rem
 BASIS = 6-31G*
 GUI = 2
 METHOD = B3LYP
 PRINT_ORBITALS false
 MOLDEN_FORMAT false
$end