$molecule
0 1
 C        -3.13185096250000   -2.73758211770000    0.15816875340000
 C        -3.09697297110000   -1.40766331260000    0.11051290140000
 C        -1.90376921740000   -0.60632025360000    0.07567720310000
 C        -0.58505780870000   -0.98788997340000    0.07736189440000
 C         0.32372076060000    0.08352548350000    0.03934027390000
 C         1.81961228420000   -0.05315703700000    0.02753521260000
 C         2.31638070060000   -1.47951040460000    0.25218127320000
 C         3.83940046750000   -1.55952227550000    0.36750644630000
 C         4.56081337470000   -1.23315029120000   -0.93516261190000
 C        -0.31280271170000    1.31012536300000    0.00295576100000
 C         0.29236608290000    2.61155653400000   -0.05017290700000
 C        -0.37478654130000    3.76273600830000   -0.08676426970000
 S        -2.04089979230000    1.12300267340000    0.02283385990000
 H        -4.06536293420000   -3.27125213680000    0.18213644550000
 H        -2.23701618690000   -3.33509864530000    0.17484466940000
 H        -4.02259509530000   -0.84663525460000    0.09598744340000
 H        -0.28825612150000   -2.01947974770000    0.10476014670000
 H         2.23823593080000    0.59017643220000    0.80766342990000
 H         2.19119070580000    0.31427054120000   -0.93338825960000
 H         1.98940072750000   -2.11655098530000   -0.57242231410000
 H         1.87812426160000   -1.86512480190000    1.17581034860000
 H         4.10912207330000   -2.57332090790000    0.67320808080000
 H         4.17912746480000   -0.87886214300000    1.15187608630000
 H         4.20270303900000   -1.87297153650000   -1.73900807600000
 H         5.63092479580000   -1.39216855460000   -0.82272761250000
 H         4.40375034990000   -0.19702020680000   -1.22369759110000
 H         1.37433940610000    2.61555646340000   -0.06258712340000
 H        -1.45195326130000    3.78881031950000   -0.07851025920000
 H         0.13355729410000    4.70966321550000   -0.12668602040000
$end

$rem
 BASIS = 6-31G*
 GUI = 2
 METHOD = B3LYP
 PRINT_ORBITALS false
 MOLDEN_FORMAT false
$end