$molecule
0 1
 C         2.31708309870000   -3.29309122410000   -0.16175504460000
 C         1.07286501610000   -2.86657020320000    0.02162399870000
 C         0.58854516260000   -1.49186245120000    0.04957416850000
 C        -0.78653893850000   -1.27211424770000    0.05896698360000
 C        -1.34312567560000   -0.00159915910000    0.06332164930000
 C        -2.82867554780000    0.07601685470000   -0.01187398750000
 O        -3.55800158630000   -0.72768101440000    0.49956537700000
 O        -3.33447916860000    1.09966193190000   -0.73297551850000
 C        -0.51242140140000    1.13007459330000    0.12863191490000
 N        -1.04530805780000    2.40884119720000    0.12224432100000
 C         0.88235184060000    0.94625548070000    0.13238942550000
 C         1.78547731520000    2.10139031590000    0.23922261390000
 C         2.86277047550000    2.29028370600000   -0.50607643380000
 C         1.39114680810000   -0.34716790280000    0.07607856630000
 F         2.73163459120000   -0.47953365400000    0.11084307300000
 H         2.53719251740000   -4.34726046910000   -0.16663521500000
 H         3.15417001140000   -2.63689467260000   -0.31451863020000
 H         0.28428412080000   -3.59686470390000    0.15542492750000
 H        -1.46281887210000   -2.11349606090000    0.04221780720000
 H        -2.64040260020000    1.62496414520000   -1.15769851510000
 H        -1.92364257980000    2.52679405490000    0.60654419740000
 H        -0.38195376280000    3.14273398960000    0.31969795170000
 H         1.53055825670000    2.82551262270000    1.00651422290000
 H         3.14792135870000    1.60068148650000   -1.28163737260000
 H         3.50022607290000    3.14627505000000   -0.36666674330000
$end

$rem
 BASIS = 6-31G*
 GUI = 2
 METHOD = B3LYP
 PRINT_ORBITALS false
 MOLDEN_FORMAT false
$end