$molecule
0 1
 C        -3.02510445590000   -2.80427630420000   -0.00849614350000
 C        -2.82969634560000   -1.53692860280000    0.34797587840000
 C        -1.67784722010000   -0.74604441200000    0.00748951430000
 C        -0.56371123030000   -1.07362707630000   -0.72023214000000
 C         0.37108248760000   -0.02874526480000   -0.84896097610000
 C         1.65040938270000   -0.21213445880000   -1.60362982650000
 C         2.64481403740000   -1.14674815470000   -0.89950781620000
 C         3.25015956120000   -0.57565927100000    0.38546123820000
 C         2.36417016560000   -0.75039343780000    1.61350012690000
 C        -0.03579052650000    1.12652426570000   -0.21299949670000
 C         0.64911133300000    2.38566442730000   -0.11784030710000
 C         0.20291822860000    3.44784872770000    0.54803473090000
 S        -1.58523651250000    0.90129973340000    0.55140027080000
 H        -3.91349072220000   -3.33613501400000    0.28259842390000
 H        -2.31054347960000   -3.35053343360000   -0.59933719630000
 H        -3.57487309410000   -1.02469593510000    0.94296157940000
 H        -0.41452451570000   -2.04364836050000   -1.15991541680000
 H         2.13140082180000    0.74967522580000   -1.78357071220000
 H         1.40789106310000   -0.64784165420000   -2.57765688200000
 H         3.45435921020000   -1.35094400120000   -1.60497280990000
 H         2.15509322250000   -2.09626958430000   -0.67477228850000
 H         3.47049222780000    0.48471678620000    0.24399936910000
 H         4.19960007970000   -1.08392664610000    0.57307251780000
 H         1.43618598260000   -0.19653002630000    1.51321453780000
 H         2.87991791780000   -0.39012641310000    2.50105294740000
 H         2.12264499710000   -1.80102843300000    1.76150277740000
 H         1.59834224480000    2.43883413540000   -0.63423873670000
 H        -0.73607571300000    3.42799533560000    1.07620002770000
 H         0.76119748330000    4.36633062690000    0.58551240740000
$end

$rem
 BASIS = 6-31G*
 GUI = 2
 METHOD = B3LYP
 PRINT_ORBITALS false
 MOLDEN_FORMAT false
$end