$molecule
0 1
 C           -1.66927374540000        4.67360671320000        0.18844566290000
 C           -0.55781342310000        3.95989686070000        0.05976331390000
 C           -0.45341760120000        2.50406868000000        0.05989410650000
 C           -1.56374823300000        1.66498941130000        0.00289775910000
 C           -1.43627711950000        0.27590962590000        0.00605836320000
 C           -2.65526444060000       -0.51734090210000       -0.06447082740000
 C           -2.77899260440000       -1.83513377930000       -0.11894011240000
 F           -1.81916946340000       -2.74981252960000       -0.12284521910000
 F           -3.95851348790000       -2.44935848720000       -0.18371459490000
 C           -0.16280428860000       -0.28812728060000        0.07488899620000
 C            0.95376522020000        0.53688303730000        0.12896335250000
 C            2.33086116780000       -0.02153379490000        0.19542367870000
 O            3.33112433130000        0.65317898930000        0.15591515060000
 O            2.33237417910000       -1.35248544880000        0.31911451870000
 C            3.60363462300000       -1.99880413900000        0.37163139540000
 C            4.14882822030000       -2.26116923760000       -1.02489546400000
 C            0.81019202580000        1.91888699750000        0.11454044360000
 H           -1.64503541870000        5.74957710830000        0.18217134080000
 H           -2.64126414180000        4.22754385680000        0.31258899030000
 H            0.38930465630000        4.47405987150000       -0.04271275720000
 H           -2.55196612260000        2.09460960370000       -0.05626727170000
 H           -3.58704226420000        0.02963814190000       -0.07925032150000
 H           -0.02302980150000       -1.35526169230000        0.08430174920000
 H            3.42438300150000       -2.93364876550000        0.90681598680000
 H            4.29850704300000       -1.36973601400000        0.93789118980000
 H            3.43623756150000       -2.84490977670000       -1.60274810400000
 H            5.08383649100000       -2.80933039950000       -0.95403072920000
 H            4.33053959760000       -1.31845074200000       -1.53527564810000
 H            1.70063953760000        2.52886708750000        0.15350243240000
$end

$rem
 BASIS = 6-31G*
 GUI = 2
 METHOD = B3LYP
 PRINT_ORBITALS false
 MOLDEN_FORMAT false
$end