$molecule
0 1
 C        -2.62236269430000    3.42997338970000   -0.01263329980000
 C        -3.08849204680000    2.18782639850000    0.00030573860000
 C        -2.23569720970000    1.02200315000000    0.00196742510000
 N        -2.74262948500000   -0.24255649560000    0.00927373390000
 C        -1.69671427690000   -1.02820086690000    0.00357672070000
 C        -1.71610250000000   -2.46834165170000    0.01186775300000
 C        -2.85884377080000   -3.14732396150000    0.02484221520000
 N        -0.55321018920000   -0.24560209550000   -0.00571905200000
 C         0.79980295370000   -0.62203069140000   -0.01742044460000
 O         1.14522252970000   -1.77298553900000   -0.06314335460000
 O         1.55067210710000    0.45294937860000    0.02815753970000
 C         3.00115937250000    0.35680567530000    0.01069809470000
 C         3.46251929310000   -0.28976811460000   -1.29396647320000
 C         3.45985518140000    1.81174650170000    0.08843167950000
 C         3.49033163830000   -0.43165357360000    1.22399754780000
 N        -0.92063973270000    1.05069903040000   -0.00552924570000
 H        -3.27971877640000    4.28222924310000   -0.01467779890000
 H        -1.56248495100000    3.61804856420000   -0.02157176350000
 H        -4.14573542570000    1.96564402660000    0.00906378110000
 H        -0.75433479360000   -2.95724331780000    0.00653654370000
 H        -3.80399776530000   -2.63183099530000    0.02858737090000
 H        -2.87457118670000   -4.22310330000000    0.03189698610000
 H         3.05724843900000    0.25479902400000   -2.14410086270000
 H         3.12978973230000   -1.32302109720000   -1.34636274770000
 H         4.54723412880000   -0.26793399830000   -1.34712455040000
 H         3.06582070720000    2.37034948520000   -0.75587188600000
 H         4.54444169090000    1.86129072890000    0.07524026660000
 H         3.09227875520000    2.26832855650000    1.00313817170000
 H         3.16428814550000   -1.46653380700000    1.16452874050000
 H         3.09953065180000    0.00911328840000    2.13861493370000
 H         4.57579568380000   -0.40763624570000    1.25836866370000
$end

$rem
 BASIS = 6-31G*
 GUI = 2
 METHOD = B3LYP
 PRINT_ORBITALS false
 MOLDEN_FORMAT false
$end