$molecule
0 1
 C        -4.49007605060000   -0.62991835550000    0.26957581070000
 C        -3.63332049190000    0.25672493490000   -0.22113864800000
 C        -2.18106119260000    0.15432572680000   -0.12997497630000
 C        -1.52606993530000   -1.06509425980000   -0.10318093620000
 C        -0.13159671590000   -1.14316162440000   -0.05968474790000
 C         0.53014154880000   -2.43791884020000    0.04613213210000
 C         1.62719084810000   -2.66729741020000    0.75341397690000
 C         0.56154288730000    0.07037086000000   -0.10834992970000
 C         2.04637569280000    0.12908297690000   -0.27972268800000
 O         2.65591170810000   -0.42720961930000   -1.15698459770000
 O         2.61483332100000    0.91333219660000    0.64029677460000
 C         4.01798171510000    1.09656645520000    0.51797601330000
 N        -0.04266046380000    1.25031455130000   -0.09990176810000
 C        -1.36710617130000    1.31412399100000   -0.08541979660000
 N        -1.89565722610000    2.57290215510000   -0.08283570930000
 H        -5.55377756810000   -0.50764172870000    0.15905645520000
 H        -4.16427201570000   -1.50197662720000    0.81102233490000
 H        -4.00723290700000    1.13173181630000   -0.73838581860000
 H        -2.10274702210000   -1.97852905910000   -0.13094787400000
 H         0.03366225000000   -3.25399307760000   -0.46385542750000
 H         2.11867352780000   -1.88779290930000    1.31159631920000
 H         2.07115145830000   -3.64629580450000    0.80690849430000
 H         4.32866323120000    1.66772680950000    1.38907244940000
 H         4.24909431230000    1.64088113590000   -0.39979041310000
 H         4.52615785760000    0.12995334530000    0.48797102170000
 H        -1.23044924360000    3.30818203690000    0.09133313390000
 H        -2.82606572920000    2.70723088560000    0.27174684690000
$end

$rem
 BASIS = 6-31G*
 GUI = 2
 METHOD = B3LYP
 PRINT_ORBITALS false
 MOLDEN_FORMAT false
$end