$molecule
0 1
 C         3.84271057550000    0.68491680360000   -0.11077548660000
 C         2.99799097380000   -0.33688419100000   -0.03058464030000
 C         1.54387999980000   -0.27069441280000    0.01392115910000
 C         0.81321286550000   -1.45739539300000    0.08991196610000
 C        -0.56354561380000   -1.43558797130000    0.13434040710000
 C        -1.27068232370000   -0.23414075100000    0.10514227970000
 C        -2.73024400620000   -0.23156694090000    0.16443158850000
 C        -3.51212433470000   -1.18581543740000   -0.32379207070000
 C        -0.54895458060000    0.96816353980000    0.03311356180000
 C        -1.25632576050000    2.29058664830000   -0.01641307020000
 C         0.83297696310000    0.92925910510000   -0.01347083610000
 H         4.90761369240000    0.52902264100000   -0.13857309530000
 H         3.51805623610000    1.71046407830000   -0.15222086350000
 H         3.39977374040000   -1.34288082740000    0.00649246070000
 H         1.33557737020000   -2.40347046740000    0.11867318800000
 H        -1.10873956560000   -2.36429710640000    0.21473572760000
 H        -3.18318253990000    0.62871609520000    0.63954438470000
 H        -3.11639733710000   -2.04569768190000   -0.83795403820000
 H        -4.58466228800000   -1.13336625860000   -0.24356231030000
 H        -1.78335743830000    2.48000525750000    0.91905430700000
 H        -1.98641278370000    2.30762478060000   -0.82420200430000
 H        -0.54568937300000    3.09821210730000   -0.17458368000000
 H         1.37306277010000    1.86236522630000   -0.07349235220000
$end

$rem
 BASIS = 6-31G*
 GUI = 2
 METHOD = B3LYP
 PRINT_ORBITALS false
 MOLDEN_FORMAT false
$end