$molecule
0 1
 C        -3.95212202320000    0.89907580610000   -0.05471467720000
 C        -3.22233083890000   -0.21016176510000   -0.06335789930000
 C        -1.76911857020000   -0.28132267500000   -0.02895067080000
 C        -1.14231021520000   -1.52402058060000    0.14568171220000
 N         0.15770280720000   -1.69010478510000    0.16354997090000
 C         0.94985884900000   -0.62664536780000    0.03477837900000
 C         2.33711754880000   -0.92735660520000   -0.00603586430000
 N         3.44458209370000   -1.21869864580000   -0.06140043220000
 C         0.45396421000000    0.68426466550000   -0.10952139290000
 C         1.29424969300000    1.87144845310000   -0.21567858090000
 C         2.49366689990000    2.02557694460000    0.32927275340000
 C        -0.93149500990000    0.82267588970000   -0.16372515350000
 H        -5.02736430990000    0.85997999790000   -0.07497957140000
 H        -3.51767146350000    1.88362756580000   -0.01893969460000
 H        -3.71774202320000   -1.17271690650000   -0.08265074650000
 H        -1.72734292910000   -2.42660981490000    0.26809689460000
 H         0.84036263300000    2.69379329500000   -0.75620412690000
 H         2.96951400090000    1.25511131270000    0.91055751840000
 H         3.04044936360000    2.94617781400000    0.21809861660000
 H        -1.34866318110000    1.80888651180000   -0.30752135180000
$end

$rem
 BASIS = 6-31G*
 GUI = 2
 METHOD = B3LYP
 PRINT_ORBITALS false
 MOLDEN_FORMAT false
$end