$molecule
0 1
 C        -3.48822406800000   -0.94056595770000   -0.00432842620000
 C        -3.13254378280000    0.34290480570000    0.00269125180000
 C        -1.78275626590000    0.85895649890000    0.00390283430000
 C        -0.65430183110000    0.12977565240000    0.00043396040000
 C         0.65428022180000    0.72290213190000    0.00215716360000
 C         1.78054596240000    0.01817793300000   -0.00020054400000
 F         1.86683107740000   -1.30820862260000   -0.00447934580000
 F         3.00173687220000    0.54414664210000    0.00133590980000
 H        -4.52356359160000   -1.23385494740000   -0.00450938080000
 H        -2.76877110120000   -1.74085788540000   -0.01005467740000
 H        -3.90859098160000    1.09786043050000    0.00808831190000
 H        -1.69581977750000    1.93830592550000    0.00840384970000
 H        -0.69049257280000   -0.94936453050000   -0.00371855580000
 H         0.74255980930000    1.79840679010000    0.00555487210000
$end

$rem
 BASIS = 6-31G*
 GUI = 2
 METHOD = B3LYP
 PRINT_ORBITALS false
 MOLDEN_FORMAT false
$end