$molecule
0 1
 C        -1.71512164070000    3.19414638280000    0.09749871170000
 C        -0.93502793690000    2.20590252740000   -0.31787116450000
 C        -1.22558065230000    0.78435425510000   -0.11877007680000
 C        -2.53770583940000    0.32689757120000   -0.20699047580000
 C        -2.83986412750000   -1.01456047820000   -0.07177176600000
 C        -1.82435257630000   -1.92903485570000    0.15448978620000
 C        -0.51582950580000   -1.49586747170000    0.25009075680000
 C        -0.19637192210000   -0.14574872030000    0.11687262930000
 C         1.17655965130000    0.32355239950000    0.27887830700000
 C         2.28206828410000   -0.36652821880000    0.04866705300000
 F         2.38507487670000   -1.60913504330000   -0.40894670860000
 F         3.50607783670000    0.12656100130000    0.23660628650000
 H        -1.46731171780000    4.22564108150000   -0.08560577670000
 H        -2.62052394210000    3.01237009670000    0.65233282510000
 H        -0.02114673150000    2.43405028320000   -0.85100208090000
 H        -3.32563337380000    1.03696779770000   -0.40872589000000
 H        -3.86421628030000   -1.34752165850000   -0.14803686350000
 H        -2.05118810920000   -2.97910328770000    0.26043674690000
 H         0.26490048310000   -2.21274156200000    0.44890386720000
 H         1.32193182170000    1.33530771760000    0.62631480690000
$end

$rem
 BASIS = 6-31G*
 GUI = 2
 METHOD = B3LYP
 PRINT_ORBITALS false
 MOLDEN_FORMAT false
$end