$molecule
0 1
 C           -3.21976417850000        3.24793672960000       -0.29914017040000
 C           -3.33919124480000        1.95098377140000       -0.04070583530000
 C           -2.27420055560000        0.95720020620000       -0.03694966460000
 C           -2.58322508750000       -0.37112599600000        0.25355550630000
 C           -1.61486114090000       -1.35569744240000        0.24974180740000
 C           -0.28816898760000       -1.04397505620000       -0.02864182650000
 O            0.71412347820000       -1.95282309850000       -0.11244135710000
 C            0.43241199860000       -3.30694964170000        0.14325959420000
 C            0.05279135740000        0.29788160700000       -0.29072105990000
 C            1.42886918150000        0.70412829980000       -0.57117657710000
 C            2.52180701480000        0.25181216900000        0.01929812970000
 F            2.61258458040000       -0.61899350090000        1.01222532240000
 F            3.74724261970000        0.68046218800000       -0.29132144450000
 C           -0.94283700930000        1.26259106890000       -0.31269899390000
 H           -4.07407486860000        3.90227830020000       -0.27677841940000
 H           -2.27939655610000        3.71206275590000       -0.54132826680000
 H           -4.31917618640000        1.55420995480000        0.19589652490000
 H           -3.60499848200000       -0.64258959260000        0.47700921720000
 H           -1.90317713850000       -2.37284112730000        0.46283504210000
 H            1.38218111980000       -3.82723915210000        0.03196826990000
 H           -0.28918289620000       -3.71042495850000       -0.57466818890000
 H            0.05890796110000       -3.45363344010000        1.16122098880000
 H            1.57302993480000        1.47710946120000       -1.31166240500000
 H           -0.66017041080000        2.27982952600000       -0.53412758520000
$end

$rem
 BASIS = 6-31G*
 GUI = 2
 METHOD = B3LYP
 PRINT_ORBITALS false
 MOLDEN_FORMAT false
$end