$molecule
0 1
 C         4.49137448440000   -0.00829527810000   -0.00278225160000
 C         3.28244366240000    0.54830818260000   -0.00193119500000
 C         2.03663632240000   -0.17134772850000    0.00072168910000
 C         1.79855582830000   -1.52533361230000    0.00377276870000
 C         0.43838140710000   -1.84862429800000    0.00438380020000
 C        -0.38537752360000   -0.74664446140000    0.00181575960000
 C        -1.81827774120000   -0.77012765070000    0.00075372530000
 C        -2.62272983120000    0.28741614320000   -0.00043962620000
 F        -2.25285138880000    1.56238386860000   -0.00033409930000
 F        -3.95053087860000    0.20584715090000   -0.00197116400000
 S         0.54469017390000    0.71829083110000   -0.00107005480000
 H         5.38269720290000    0.59347361400000   -0.00507999010000
 H         4.63223237670000   -1.07505173240000   -0.00111890090000
 H         3.18619245240000    1.62620074530000   -0.00390485290000
 H         2.58078540440000   -2.26200913040000    0.00547318310000
 H         0.06187753820000   -2.85618631380000    0.00651688670000
 H        -2.29079329150000   -1.74088166340000    0.00059109090000
$end

$rem
 BASIS = 6-31G*
 GUI = 2
 METHOD = B3LYP
 PRINT_ORBITALS false
 MOLDEN_FORMAT false
$end