$molecule
0 1
 C         3.19588735840000   -2.63175382320000    0.00449626890000
 C         2.63699266570000   -1.42549405970000   -0.00172432350000
 C         1.21547270410000   -1.13432785950000   -0.00082686820000
 C         0.20587386770000   -2.07799401200000   -0.00111437770000
 C        -1.15194715280000   -1.74155094870000   -0.00154573310000
 C        -1.60441900100000   -0.43578420100000   -0.00152156550000
 C        -2.99756063530000   -0.03003204120000   -0.00294216980000
 C        -4.05469858110000   -0.83609403910000    0.00616451930000
 C        -0.60060032560000    0.56586390400000   -0.00100767420000
 N        -0.78709786900000    1.88608907020000   -0.00058163810000
 S         0.64681939670000    2.61129525100000    0.00011589600000
 N         1.57636538280000    1.30058865310000    0.00002562750000
 C         0.79518340030000    0.22004179930000   -0.00059727720000
 H         4.26558204320000   -2.74966861670000    0.00286127710000
 H         2.62082476290000   -3.54212172650000    0.01177698970000
 H         3.26166603560000   -0.54214359860000   -0.00785016580000
 H         0.46644815610000   -3.12525616250000   -0.00172735920000
 H        -1.87121734080000   -2.54608285480000   -0.00248628800000
 H        -3.13793956460000    1.04263455790000   -0.01148952130000
 H        -3.97078010490000   -1.90946985070000    0.01622949750000
 H        -5.05587258280000   -0.44142767650000    0.00410483030000
$end

$rem
 BASIS = 6-31G*
 GUI = 2
 METHOD = B3LYP
 PRINT_ORBITALS false
 MOLDEN_FORMAT false
$end