$molecule
0 1
 C        -6.53056387000000    0.15887794630000   -0.00500876810000
 C        -5.41546728170000   -0.56855491690000   -0.00420912250000
 C        -4.07939439680000   -0.03809364440000    0.00070720930000
 C        -3.64402392330000    1.26588066630000    0.00697764320000
 C        -2.25201804210000    1.39048405220000    0.00917191420000
 C        -1.59460038860000    0.18150188240000    0.00464609210000
 C        -0.19173331970000   -0.05854383880000    0.00375815700000
 C         0.46587196550000   -1.26750164500000    0.00217767030000
 C         1.85842392340000   -1.14661882740000    0.00027371750000
 C         2.28984417370000    0.15851679450000    0.00025619400000
 C         3.61788181160000    0.69842770090000   -0.00230819070000
 C         4.74884395840000    0.00026934430000   -0.00392342730000
 F         4.86792079820000   -1.32296140690000   -0.00300117200000
 F         5.95756599650000    0.55492780680000   -0.00679268080000
 S         0.94138678860000    1.25952495830000    0.00306460060000
 S        -2.72948916580000   -1.13535730680000   -0.00203886060000
 H        -7.50003072330000   -0.30657857240000   -0.00905992070000
 H        -6.51407355040000    1.23478693110000   -0.00170316340000
 H        -5.47800505040000   -1.64904783230000   -0.00782779420000
 H        -4.31119101710000    2.10832531880000    0.00983990580000
 H        -1.72913959250000    2.33093104740000    0.01377156910000
 H        -0.05678831500000   -2.20757941490000    0.00233939410000
 H         2.52641804320000   -1.98799298900000   -0.00124112780000
 H         3.71650090740000    1.77324378310000   -0.00332540150000
$end

$rem
 BASIS = 6-31G*
 GUI = 2
 METHOD = B3LYP
 PRINT_ORBITALS false
 MOLDEN_FORMAT false
$end