$molecule
0 1
 C         2.04889950930000    2.80487637240000   -0.10416137710000
 C         2.18821036390000    1.48587324960000   -0.03697967650000
 C         1.14361985690000    0.46967506470000   -0.00121333700000
 C         1.54683453110000   -0.86285695480000   -0.08964850050000
 C         0.61889634150000   -1.88106650870000   -0.04707338930000
 F         1.04197727130000   -3.16372258670000   -0.12183820430000
 C        -0.72932279450000   -1.62424897980000    0.07561504630000
 C        -1.16718182360000   -0.30426830350000    0.13748473760000
 C        -2.61174356290000   -0.06523384920000    0.24403716710000
 C        -3.29980757570000    0.86054801750000   -0.41420388990000
 C        -0.23295875280000    0.74433174020000    0.11873049980000
 O        -0.63977860190000    2.02928080420000    0.26218792100000
 H         2.91465312820000    3.44573207670000   -0.13036875720000
 H         1.09096498580000    3.28789725850000   -0.13722279730000
 H         3.18902694500000    1.07065269500000   -0.01797794350000
 H         2.59342700070000   -1.10593643150000   -0.18631577710000
 H        -1.43727658040000   -2.43745471670000    0.10291373290000
 H        -3.13583512600000   -0.75212037200000    0.89742532490000
 H        -2.84777332590000    1.52035543440000   -1.13804240870000
 H        -4.36572087010000    0.95564664680000   -0.29368299140000
 H        -1.59283460060000    2.04075551890000    0.43708021900000
$end

$rem
 BASIS = 6-31G*
 GUI = 2
 METHOD = B3LYP
 PRINT_ORBITALS false
 MOLDEN_FORMAT false
$end