$molecule
0 1
 C        -1.70375225680000   -3.03973387900000   -0.91916724230000
 C        -1.11813651210000   -2.43144919430000    0.09997126740000
 C        -0.75248844770000   -1.00289440430000    0.09101172570000
 C        -1.66275866240000    0.03518849240000    0.02181960080000
 O        -3.02409372460000   -0.04065592630000    0.06863618070000
 C        -3.68125417070000   -1.16003054850000    0.60973984360000
 C        -1.20353522190000    1.36366656920000   -0.09132029000000
 C         0.12338223870000    1.72025666760000   -0.10107277250000
 C         0.44294562790000    3.13494187790000   -0.22855686400000
 C         1.64559953960000    3.69636398970000   -0.28399889010000
 C         1.08761741060000    0.67212461100000    0.02559875200000
 N         2.39604899750000    0.97191471210000    0.05570988100000
 C         3.28091425680000    0.01848123150000    0.14309660850000
 C         2.94829714640000   -1.34136044070000    0.19335394080000
 C         1.62261420210000   -1.68128493960000    0.17031422780000
 C         0.63331054900000   -0.67590211960000    0.10652520080000
 H        -1.93950985220000   -4.09064199840000   -0.89749572590000
 H        -1.96293775870000   -2.50633244150000   -1.81950017060000
 H        -0.83692637110000   -2.99448075910000    0.98342574010000
 H        -4.65564361950000   -0.79557034910000    0.93863004520000
 H        -3.14073507320000   -1.57227747980000    1.46512312810000
 H        -3.82350212010000   -1.94795257390000   -0.13572801760000
 H        -1.96932605430000    2.12206143410000   -0.16516089820000
 H        -0.43562945100000    3.76839979920000   -0.28774778380000
 H         2.54330380070000    3.10914171050000   -0.23055615160000
 H         1.75010304000000    4.76455785830000   -0.38254575280000
 H         4.31596768360000    0.33669218710000    0.16748170040000
 H         3.72091858550000   -2.09308460230000    0.24462811620000
 H         1.32585779800000   -2.71967577590000    0.19441246750000
$end

$rem
 BASIS = 6-31G*
 GUI = 2
 METHOD = B3LYP
 PRINT_ORBITALS false
 MOLDEN_FORMAT false
$end