$molecule
0 1
 F        -5.15986046070000    0.26719413610000   -0.01725562910000
 C        -3.88031636540000   -0.09550996720000    0.02143441270000
 F        -3.81070723380000   -1.41122024460000    0.17942663030000
 C        -2.88044310070000    0.76788108280000   -0.08661910280000
 C        -1.45202260400000    0.50400358290000   -0.06078804920000
 C        -0.57908080750000    1.58565590060000   -0.20577762760000
 C         0.78755469960000    1.40795188790000   -0.19562825960000
 C         1.32486347590000    0.13269933740000   -0.03290554370000
 N         2.70875750810000   -0.05182475280000   -0.01555058620000
 C         3.65174905190000    0.82096623400000    0.44346880130000
 N         4.85539867210000    0.34544207280000    0.33777314830000
 C         4.71897721140000   -0.88730083910000   -0.22300824720000
 C         3.40209875820000   -1.15867276950000   -0.43991998030000
 C         0.46379492200000   -0.95222619890000    0.11659893680000
 C        -0.90328375510000   -0.77010793760000    0.10050786020000
 H        -3.17774148650000    1.79928149380000   -0.21023069660000
 H        -0.98200172060000    2.57902655900000   -0.33553893180000
 H         1.44328844420000    2.25448693550000   -0.32866869410000
 H         3.40939288910000    1.77155934320000    0.87383680390000
 H         5.57560798870000   -1.49615093070000   -0.43009655800000
 H         2.91775521930000   -2.00474090970000   -0.88076385180000
 H         0.86855988090000   -1.94206500870000    0.26088524000000
 H        -1.54243311990000   -1.62886111860000    0.22069900950000
$end

$rem
 BASIS = 6-31G*
 GUI = 2
 METHOD = B3LYP
 PRINT_ORBITALS false
 MOLDEN_FORMAT false
$end