$molecule
0 1
 C        -3.42104663420000   -2.82883176780000    0.03420741490000
 C        -3.33735777550000   -1.50571808490000   -0.05592507900000
 C        -2.08033058290000   -0.80518862260000   -0.00939980250000
 N        -0.89306572570000   -1.31912822270000    0.12121623330000
 C        -0.02911244380000   -0.26637401100000    0.11489631890000
 C         1.41963690880000   -0.48710954590000    0.23730005590000
 O         1.94956880740000   -1.56601079040000    0.26079694550000
 O         2.08989913840000    0.67719746060000    0.33086070100000
 C         3.51213245120000    0.58507052420000    0.43219677680000
 C         4.15952421730000    0.43759214580000   -0.93729849510000
 C        -0.76316231780000    0.90497698380000   -0.02907766370000
 C        -0.37851770650000    2.28684052120000   -0.10876214340000
 C        -1.25030267240000    3.28244332850000   -0.25327208560000
 O        -2.06332207580000    0.54546533770000   -0.10728787540000
 H        -4.36739242970000   -3.33883836620000   -0.00195242530000
 H        -2.53099728550000   -3.42278086490000    0.14652027040000
 H        -4.20772002760000   -0.87503844440000   -0.16955941820000
 H         3.76676574460000   -0.27152031280000    1.06461966980000
 H         3.82139169180000    1.51298182510000    0.91821817710000
 H         3.84592728820000   -0.49706725270000   -1.39539532860000
 H         5.24041065020000    0.43215886270000   -0.83019630470000
 H         3.86954688780000    1.26318316380000   -1.58316063050000
 H         0.68337705260000    2.46277452450000   -0.04073422670000
 H        -2.30958393870000    3.09824321480000   -0.31747124160000
 H        -0.92805856000000    4.30693923630000   -0.31050578010000
$end

$rem
 BASIS = 6-31G*
 GUI = 2
 METHOD = B3LYP
 PRINT_ORBITALS false
 MOLDEN_FORMAT false
$end