$molecule
0 1
 C         4.36384648610000   -1.47557421170000    0.14772167290000
 C         3.09985774340000   -1.86061895580000    0.01767915460000
 C         1.91721632110000   -1.00732823410000    0.02200926400000
 C         1.98734687280000    0.38169287870000    0.12772641720000
 C         0.86436127110000    1.21478405850000    0.12153456220000
 C         1.04040092650000    2.66430757190000    0.19824299730000
 C         0.28189136960000    3.56579595740000   -0.41108038480000
 C        -0.37478450930000    0.58726450050000    0.04689985550000
 C        -0.46960053860000   -0.81108569170000   -0.05501740970000
 C         0.65723498150000   -1.60847332790000   -0.08027342720000
 C        -1.89041936790000   -1.17072770890000   -0.10002632010000
 O        -2.40925031180000   -2.25080727730000   -0.20755978110000
 C        -2.63000538340000    0.18853674220000    0.03266935680000
 O        -3.81407787650000    0.39642743310000    0.07699708820000
 N        -1.64634946980000    1.13882459040000    0.09183693060000
 H         5.16707515960000   -2.19155437400000    0.13315074380000
 H         4.65577954300000   -0.44727849320000    0.27457496790000
 H         2.88476099020000   -2.91492364400000   -0.10235933930000
 H         2.95533769060000    0.85342703310000    0.20134798170000
 H         1.89538418690000    2.98927271650000    0.77772419020000
 H        -0.53783344880000    3.29424947760000   -1.05540261390000
 H         0.48374355860000    4.61937184210000   -0.32212872420000
 H         0.55586201120000   -2.67968933990000   -0.16472666460000
 H        -1.82440649400000    2.12009851860000    0.24275308490000
$end

$rem
 BASIS = 6-31G*
 GUI = 2
 METHOD = B3LYP
 PRINT_ORBITALS false
 MOLDEN_FORMAT false
$end