$molecule
0 1
 C        -3.12951173320000   -0.58857867930000    0.85485760360000
 C        -2.60487975490000    0.20373728270000   -0.06661619030000
 C        -1.19016442400000    0.58749284570000   -0.13862106130000
 C        -0.90364268810000    1.94258010720000   -0.30790760850000
 C         0.39717494450000    2.39620388160000   -0.27996055570000
 C         1.44458678570000    1.50947025380000   -0.08771697990000
 C         1.18211154010000    0.15467745240000    0.05522222690000
 O         2.14604052400000   -0.79954510050000    0.21777863170000
 C         3.49128526590000   -0.39748323740000    0.27074488960000
 C        -0.14206966130000   -0.32344024590000    0.01574715100000
 C        -0.33266043400000   -1.77585315250000    0.09144957740000
 C        -1.10078711600000   -2.47805943400000   -0.72642939830000
 H        -4.18586758960000   -0.79421297240000    0.89091259010000
 H        -2.52112389020000   -1.06423128370000    1.60542991180000
 H        -3.24957321050000    0.69440258240000   -0.78630314300000
 H        -1.71771830660000    2.64051723070000   -0.43798768880000
 H         0.60856773870000    3.44805006750000   -0.40377093590000
 H         2.45505033110000    1.88529108100000   -0.06227154820000
 H         4.06524208650000   -1.31209659410000    0.41348406040000
 H         3.67891673840000    0.28044122810000    1.11020644990000
 H         3.80611563590000    0.08258504060000   -0.66173914390000
 H         0.27834782140000   -2.27767391190000    0.83073480460000
 H        -1.68505933950000   -2.00828411980000   -1.50007039680000
 H        -1.17661200220000   -3.54944975200000   -0.65141964410000
$end

$rem
 BASIS = 6-31G*
 GUI = 2
 METHOD = B3LYP
 PRINT_ORBITALS false
 MOLDEN_FORMAT false
$end