$molecule
0 1
 C         2.69791060630000   -0.23291560440000    2.75624936170000
 C         3.31011221110000    0.24698967320000    1.68124653590000
 C         2.63709546470000    0.42728266860000    0.39870017010000
 C         3.31996294970000    0.96285964670000   -0.69820436380000
 C         2.63631572650000    1.13092131030000   -1.88867719640000
 C         1.30610350830000    0.75423936400000   -1.96057279760000
 C         0.70664218690000    0.21402636390000   -0.81983257610000
 C        -0.70686595810000   -0.21240508410000   -0.81989717040000
 C        -1.30557298020000   -0.75402782940000   -1.96035565250000
 C        -2.63545313780000   -1.13188472100000   -1.88847772600000
 C        -3.31952040930000   -0.96359725980000   -0.69828675750000
 C        -2.63737260830000   -0.42663428110000    0.39838985220000
 C        -3.31063707570000   -0.24686960220000    1.68088712090000
 C        -2.69815513820000    0.23059415030000    2.75679366350000
 N        -1.36199603670000   -0.06367887970000    0.31990285280000
 N         1.36135951120000    0.06558717320000    0.32023152630000
 H         3.20566816060000   -0.35801940800000    3.69731623990000
 H         1.65939856950000   -0.51116807560000    2.70356594290000
 H         4.35303731940000    0.53555513210000    1.70909454850000
 H         4.35873200220000    1.24431182600000   -0.61032943200000
 H         3.13217166570000    1.55382272120000   -2.75144569090000
 H         0.74125700680000    0.89533828240000   -2.86896048340000
 H        -0.74036810360000   -0.89547196320000   -2.86846667890000
 H        -3.13063374690000   -1.55603030620000   -2.75101722770000
 H        -4.35798675080000   -1.24614222360000   -0.61034042540000
 H        -4.35386409140000   -0.53441283540000    1.70808785930000
 H        -1.65934366260000    0.50785045390000    2.70479076700000
 H        -3.20595977470000    0.35478330150000    3.69796119210000
$end

$rem
 BASIS = 6-31G*
 GUI = 2
 METHOD = B3LYP
 PRINT_ORBITALS false
 MOLDEN_FORMAT false
$end