$molecule
0 1
 C         1.75022737280000    3.57965480820000    0.30870481400000
 C         2.20266909420000    2.35572864710000    0.06677878710000
 C         1.40994839850000    1.13097403570000    0.03026045290000
 C         2.06691506190000   -0.09608759770000   -0.02726517560000
 C         1.37685648550000   -1.30575576730000   -0.05763787180000
 C         2.04234360180000   -2.60284957150000   -0.11451642650000
 C         3.34952041730000   -2.82189942020000   -0.18635952510000
 C        -0.01783816720000   -1.27227450720000   -0.03395659290000
 C        -0.68041372100000   -0.05614780720000    0.01883444420000
 C        -2.18197265560000   -0.03108227480000    0.00212666730000
 F        -2.73221594580000   -1.12976302650000    0.54206657670000
 F        -2.69499446200000    1.01626385390000    0.66805852950000
 F        -2.67227656280000    0.05177018700000   -1.25258646830000
 C         0.01503304310000    1.14137646010000    0.04621348660000
 H         2.41382941120000    4.42695665430000    0.32065934290000
 H         0.71456750170000    3.79089997190000    0.51169859090000
 H         3.26112158420000    2.21117583910000   -0.11063983130000
 H         3.14614525940000   -0.10118235770000   -0.04166100790000
 H         1.36897296730000   -3.45051892660000   -0.09737800560000
 H         4.07722184090000   -2.02915846010000   -0.21138713960000
 H         3.74470013920000   -3.82217110050000   -0.22536509660000
 H        -0.58353590460000   -2.19167265860000   -0.05579060810000
 H        -0.52901356530000    2.07138578410000    0.07646382080000
$end

$rem
 BASIS = 6-31G*
 GUI = 2
 METHOD = B3LYP
 PRINT_ORBITALS false
 MOLDEN_FORMAT false
$end