$molecule
0 1
 C         4.24864510440000   -0.91476737870000   -0.08095034930000
 C         3.30047743850000    0.01446753580000    0.00401255240000
 C         1.88368822090000   -0.23332409230000    0.03501163960000
 N         1.31866299480000   -1.46278787730000   -0.01673057490000
 N        -0.01107943830000   -1.42912153530000    0.02510734270000
 C        -0.33747864720000   -0.15107185460000    0.08433378290000
 N        -1.64027839200000    0.29649858820000    0.20144121600000
 C        -2.77999939170000   -0.43293884400000   -0.02342677210000
 C        -4.03018589540000    0.37543925890000    0.27206544140000
 O        -2.79023329070000   -1.56816463700000   -0.42116504890000
 C         0.82030853820000    0.67506020890000    0.09293507530000
 C         0.90893818510000    2.11589581240000    0.16098957780000
 C         0.00473777780000    2.97428139520000   -0.30009584970000
 H         5.29040543480000   -0.64791603820000   -0.09661061850000
 H         4.03028009300000   -1.96770487230000   -0.13978173980000
 H         3.57695906300000    1.05860439480000    0.05421605240000
 H         1.78374623530000   -2.35207546240000   -0.09016924760000
 H        -1.72977295290000    1.25666554470000    0.50276165830000
 H        -4.03903726550000    0.68347460150000    1.31551812180000
 H        -4.90438926120000   -0.23673363690000    0.07257495240000
 H        -4.06439578910000    1.26284083040000   -0.35669403170000
 H         1.81093205240000    2.49892696800000    0.62323334740000
 H        -0.87913717230000    2.65908386250000   -0.82899151010000
 H         0.14457907670000    4.03731532840000   -0.20444896460000
$end

$rem
 BASIS = 6-31G*
 GUI = 2
 METHOD = B3LYP
 PRINT_ORBITALS false
 MOLDEN_FORMAT false
$end