$molecule
0 1
 C        -3.61407394240000    0.34530949980000   -0.20458619960000
 C        -2.50906843560000   -0.14497548670000    0.34026080400000
 C        -1.16600589670000    0.39585162920000    0.13455813780000
 C        -0.99185106040000    1.77552272490000    0.01811932840000
 C         0.26872716830000    2.31840466670000   -0.09819886800000
 C         1.39002885970000    1.50310196080000   -0.08921849760000
 C         1.24175483570000    0.12927918010000    0.02766495730000
 O         2.28315735460000   -0.75446922150000    0.03407509470000
 C         3.59307321920000   -0.25493486250000   -0.05886606270000
 C        -0.04292376740000   -0.44196159470000    0.12783780160000
 C        -0.13269953370000   -1.89786863830000    0.21014160680000
 C        -1.05905630360000   -2.64687852490000   -0.37277251480000
 H        -4.58248842060000   -0.07710454870000    0.00315456290000
 H        -3.59366269250000    1.17125497930000   -0.89614945890000
 H        -2.56861400000000   -1.00351176810000    0.99733225330000
 H        -1.85681953130000    2.41999924820000    0.04641209200000
 H         0.39311112290000    3.38763360710000   -0.18695055210000
 H         2.36726740280000    1.95139191150000   -0.17276399290000
 H         4.24302387930000   -1.12828565040000   -0.02457525600000
 H         3.83471046390000    0.40735111700000    0.77920708800000
 H         3.75586147250000    0.27735750320000   -1.00183615810000
 H         0.67269803780000   -2.36790772280000    0.75965089830000
 H        -1.83850593890000   -2.22223840550000   -0.98311393290000
 H        -1.05553948270000   -3.71984060270000   -0.27765629830000
$end

$rem
 BASIS = 6-31G*
 GUI = 2
 METHOD = B3LYP
 PRINT_ORBITALS false
 MOLDEN_FORMAT false
$end