$molecule
0 1
 C         0.64233617380000   -4.60640585730000    0.08374238340000
 C        -0.31420244450000   -3.70061954000000   -0.07828352020000
 C        -0.15016984560000   -2.25105890700000   -0.05074076320000
 C         1.09554089310000   -1.62822103010000   -0.04163758070000
 C         1.22736399050000   -0.24118491700000   -0.01299836170000
 C         2.57199294060000    0.31476337090000   -0.00787424870000
 C         2.93633146320000    1.58911279670000    0.01562077870000
 F         2.15902587080000    2.65996230030000    0.04009093790000
 F         4.20736057330000    1.97536268900000    0.01773550690000
 C         0.07588861420000    0.54901915980000    0.00732172790000
 C        -1.16475669660000   -0.06562676450000   -0.00541534170000
 C        -2.42684727570000    0.75140009090000    0.00560754060000
 F        -2.21482041870000    2.06830443360000    0.10302902460000
 F        -3.15558947140000    0.56409853350000   -1.11193566230000
 F        -3.23399958280000    0.41761706280000    1.03027492790000
 C        -1.28924773510000   -1.44637570470000   -0.03817710510000
 H         0.42231516490000   -5.65929072040000    0.05254968360000
 H         1.67206470490000   -4.34708455390000    0.26094426860000
 H        -1.33283682120000   -4.03240520790000   -0.23343830890000
 H         1.98902964170000   -2.23226819540000   -0.06581917440000
 H         3.38687462990000   -0.39423925110000   -0.02563799920000
 H         0.13583222360000    1.62401707070000    0.03074823850000
 H        -2.27204008860000   -1.89374651960000   -0.04832595600000
$end

$rem
 BASIS = 6-31G*
 GUI = 2
 METHOD = B3LYP
 PRINT_ORBITALS false
 MOLDEN_FORMAT false
$end