$molecule
0 1
 C         3.46802971460000    1.75509440890000    0.40251190340000
 C         2.33066824050000    1.74659662250000   -0.27929603510000
 C         1.27860965560000    0.74979738990000   -0.16970769250000
 C        -0.08566432080000    1.07984849190000   -0.24173958520000
 C        -0.81403109540000   -0.06986754790000    0.00323282640000
 C        -2.23955783150000   -0.33749652430000    0.06598914060000
 O        -2.70385585280000   -1.43347274820000    0.30245519910000
 O        -2.97367405980000    0.76255477570000   -0.17197259980000
 C        -4.38595937060000    0.62294699090000   -0.13339894010000
 N         0.07751336700000   -1.08033957940000    0.21177904370000
 C         1.35103683940000   -0.62602395950000    0.09929284900000
 C         2.44026222710000   -1.57031579620000    0.18649730400000
 C         3.65849200820000   -1.42165528090000   -0.32338586210000
 H         4.18065658200000    2.55527268540000    0.29784613710000
 H         3.72311316510000    0.97012014040000    1.09389765590000
 H         2.08951498980000    2.57737477550000   -0.93161407790000
 H        -0.49545816120000    2.05194435550000   -0.42923773360000
 H        -4.79045174450000    1.04237089450000   -1.05424545330000
 H        -4.77072357290000    1.17479864160000    0.72564000520000
 H        -4.65314033130000   -0.43218496870000   -0.04648597280000
 H        -0.20380461230000   -2.03375737200000    0.38222072470000
 H         2.17957289370000   -2.50107764950000    0.67872337560000
 H         3.94956047870000   -0.53043306510000   -0.85022551000000
 H         4.39857380030000   -2.19761359530000   -0.23325165030000
$end

$rem
 BASIS = 6-31G*
 GUI = 2
 METHOD = B3LYP
 PRINT_ORBITALS false
 MOLDEN_FORMAT false
$end