$molecule
0 1
 F        -5.42014001190000   -1.18686837080000   -1.23661614010000
 C        -4.22087768580000   -0.79348507700000   -0.81302648950000
 F        -3.30259427320000   -1.62129278380000   -1.29461057840000
 C        -4.04063312770000    0.26012549520000   -0.03058010950000
 C        -2.79315209150000    0.78553206670000    0.50353004490000
 C        -1.54172122940000    0.30243758260000    0.12695312560000
 C        -0.38403874640000    0.83791454290000    0.67992644910000
 N         0.86525049850000    0.33550992930000    0.30097112720000
 C         1.22490474810000   -0.99950246050000    0.26650554760000
 C         2.57054102850000   -1.10870174800000   -0.15150873080000
 C         3.17062200130000   -2.35741019160000   -0.24605287160000
 C         2.42894684210000   -3.47390057800000    0.08374980880000
 C         1.11071979020000   -3.35478277110000    0.51768894140000
 C         0.49239563510000   -2.12322873770000    0.62019138400000
 C         1.95441474390000    1.08997108360000   -0.09296104400000
 C         3.03633465590000    0.22941652150000   -0.38736002230000
 C         4.24441494250000    0.75581890460000   -0.82488086290000
 C         4.35529731210000    2.12395915400000   -0.97227478320000
 C         3.27554556570000    2.96231092980000   -0.70511951880000
 C         2.06367795730000    2.46182964880000   -0.26833141980000
 C        -0.46982955940000    1.87153987180000    1.61035345210000
 C        -1.70986175930000    2.36571952940000    1.97101066280000
 C        -2.86212643720000    1.83098841280000    1.42760239750000
 H        -4.94348601350000    0.78187593100000    0.25221452060000
 H        -1.44931928420000   -0.47732840780000   -0.61083773400000
 H         4.19737320480000   -2.44699466320000   -0.56729230840000
 H         2.87512852120000   -4.45476859420000    0.01434015980000
 H         0.55927954260000   -4.24463129550000    0.78273276660000
 H        -0.52435398760000   -2.04346907330000    0.97365699130000
 H         5.07511636860000    0.10381158550000   -1.04889478090000
 H         5.28665495700000    2.55422485950000   -1.30911181840000
 H         3.38603121640000    4.02740380290000   -0.84629209440000
 H         1.22767729480000    3.11972619850000   -0.08382670890000
 H         0.43078377100000    2.26867384520000    2.05277317180000
 H        -1.77733165060000    3.16849687720000    2.68983822210000
 H        -3.82580958770000    2.21905167880000    1.72112256380000
$end

$rem
 BASIS = 6-31G*
 GUI = 2
 METHOD = B3LYP
 PRINT_ORBITALS false
 MOLDEN_FORMAT false
$end