$molecule
0 1
 C            0.47679054970000        4.56428472500000        0.00502994490000
 C           -0.54709263380000        3.71999421360000       -0.00906797410000
 C           -0.47292494830000        2.26263205890000        0.02071437620000
 C           -1.65665462840000        1.52906294840000       -0.03164314480000
 C           -1.66636585260000        0.13414076190000       -0.00940337870000
 C           -2.95541799020000       -0.53892122520000       -0.06907235600000
 C           -3.20560054860000       -1.83997297090000       -0.05653759070000
 F           -2.34170924230000       -2.84031848410000        0.01334804580000
 F           -4.43928203660000       -2.33750974280000       -0.11645820470000
 C           -0.44941566820000       -0.53924791430000        0.06811852350000
 C            0.74016491440000        0.17950655460000        0.12350869490000
 C            2.01100455240000       -0.58907608480000        0.20505061240000
 O            2.07165308760000       -1.79359997410000        0.19956743590000
 O            3.08302048890000        0.20906987480000        0.29720798950000
 C            4.35721993610000       -0.43081176530000        0.36443650190000
 C            4.86795953740000       -0.80161249180000       -1.02050400060000
 C            0.73299388640000        1.56784826500000        0.09999113580000
 H            0.32179299460000        5.62911706320000       -0.02080779560000
 H            1.50200346310000        4.23896098530000        0.04128364420000
 H           -1.55392755120000        4.11725923020000       -0.04893138970000
 H           -2.59746520700000        2.05844308000000       -0.09227989340000
 H           -3.82837157730000        0.09487328730000       -0.13136507390000
 H           -0.39234614450000       -1.61531280210000        0.08805152440000
 H            4.27122864210000       -1.32714854280000        0.98744351670000
 H            5.01417515900000        0.29668823230000        0.84597881920000
 H            4.20708545250000       -1.53604372270000       -1.47410683600000
 H            5.86401607310000       -1.22706482460000       -0.93922858020000
 H            4.90753489680000        0.07962876110000       -1.65652106510000
 H            1.67092698300000        2.09531366510000        0.14506724730000
$end

$rem
 BASIS = 6-31G*
 GUI = 2
 METHOD = B3LYP
 PRINT_ORBITALS false
 MOLDEN_FORMAT false
$end