$molecule
0 1
 C            0.46783766520000        4.56956533570000        0.05148335360000
 C           -0.54843850020000        3.72020456270000        0.13626608180000
 C           -0.47353172040000        2.26461140030000        0.05901291550000
 C           -1.65566972950000        1.52813022750000        0.10600963660000
 C           -1.66470600050000        0.13480220270000        0.03560934950000
 C           -2.95214315380000       -0.54160173640000        0.09218683050000
 C           -3.20096784250000       -1.84216098790000        0.04603030250000
 F           -2.33681590540000       -2.83886366580000       -0.06240399770000
 F           -4.43321787440000       -2.34305410490000        0.10748516120000
 C           -0.44858523040000       -0.53394455120000       -0.08374612200000
 C            0.73969682710000        0.18762221270000       -0.12972242600000
 C            2.00973117720000       -0.57645549570000       -0.25455858770000
 O            2.06895820620000       -1.77942482170000       -0.31775533110000
 O            3.08283897340000        0.22423803070000       -0.30039729760000
 C            4.35606670490000       -0.41279227860000       -0.40389494450000
 C            4.86124651360000       -0.87361628940000        0.95587228840000
 C            0.73184384270000        1.57435287820000       -0.05866421260000
 H            0.31311129700000        5.63264300990000        0.11845895000000
 H            1.48601150770000        4.25027183470000       -0.08886700880000
 H           -1.54926841840000        4.11149134280000        0.27201720970000
 H           -2.59584606930000        2.05397428040000        0.19876884100000
 H           -3.82494053520000        0.08885846060000        0.18378806760000
 H           -0.39107276480000       -1.60856991750000       -0.14245460710000
 H            5.01608350650000        0.34300937830000       -0.83512993150000
 H            4.27077141370000       -1.26688650650000       -1.08383397010000
 H            4.90073619080000       -0.03537422710000        1.64762546050000
 H            5.85656411010000       -1.29547645080000        0.85037356210000
 H            4.19714983990000       -1.63422477880000        1.35888272670000
 H            1.66898163730000        2.10401455500000       -0.09356235120000
$end

$rem
 BASIS = 6-31G*
 GUI = 2
 METHOD = B3LYP
 PRINT_ORBITALS false
 MOLDEN_FORMAT false
$end