$molecule
0 1
 C         3.99797919780000    0.71509534110000    0.07946593900000
 C         3.20043623360000   -0.34523493750000    0.05805765160000
 C         1.74385136550000   -0.33458349450000   -0.00680256370000
 C         0.97459242370000    0.82075516590000   -0.02346258890000
 C        -0.41835765690000    0.74666290990000   -0.08066186050000
 O        -1.02637722220000    1.95930847950000   -0.02735457150000
 C        -2.42039649140000    2.09276574840000    0.12268689910000
 C        -1.01371253510000   -0.52313878420000   -0.14903215600000
 C        -2.44482643880000   -0.80992120060000   -0.29421756070000
 C        -3.07850383260000   -1.73813348000000    0.40877324180000
 C        -0.13466704480000   -1.61304082840000   -0.11290315390000
 N         1.17148999810000   -1.54310455760000   -0.04141229930000
 H         5.06818365230000    0.60837441690000    0.12637140250000
 H         3.62572292100000    1.72504546370000    0.05051346620000
 H         3.61555917480000   -1.34346297890000    0.08584545830000
 H         1.42093275420000    1.79998126750000    0.02374246970000
 H        -2.57586155690000    3.09770050750000    0.51702128980000
 H        -2.82717043560000    1.36074124920000    0.82372578800000
 H        -2.93466890900000    2.01009444600000   -0.83887380620000
 H        -2.97497652900000   -0.26398849920000   -1.06320367080000
 H        -2.58428437560000   -2.29604287100000    1.18660565730000
 H        -4.11918616570000   -1.95943804420000    0.24483290090000
 H        -0.54459305270000   -2.61359395750000   -0.16953931830000
$end

$rem
 BASIS = 6-31G*
 GUI = 2
 METHOD = B3LYP
 PRINT_ORBITALS false
 MOLDEN_FORMAT false
$end