$molecule
0 1
 C        -5.17248356980000   -1.35221077860000   -0.02465762460000
 C        -3.85131775100000   -1.39056896340000    0.09611691020000
 C        -2.93782745170000   -0.25423709670000    0.04101473650000
 C        -3.37415787800000    1.07050152150000   -0.01722713810000
 C        -2.45905685370000    2.10563698270000   -0.06906139310000
 C        -1.10096224520000    1.85178558060000   -0.06736447640000
 C        -0.62934193710000    0.53728871660000   -0.00872743880000
 C         0.77893937220000    0.18954974000000   -0.00249086920000
 C         1.80823209710000    1.04337259120000   -0.12488860760000
 C         3.20836998980000    0.69675600520000   -0.12218843900000
 C         3.75621071730000   -0.50619960470000    0.01125138800000
 F         3.13609714730000   -1.66969831630000    0.17399422960000
 F         5.07213228030000   -0.71512638760000   -0.00087659600000
 C        -1.56671296010000   -0.49511972950000    0.05011546810000
 H        -5.76464035490000   -2.24978258210000    0.02603896910000
 H        -5.71877597440000   -0.43815148710000   -0.18259747940000
 H        -3.36655934810000   -2.34853263140000    0.24118019980000
 H        -4.42923819880000    1.29430793220000   -0.01414210450000
 H        -2.81044526200000    3.12665395130000   -0.10988083900000
 H        -0.40914704240000    2.67848594120000   -0.10455021910000
 H         0.97790278960000   -0.86735679400000    0.10545392940000
 H         1.62159878980000    2.10062988030000   -0.24307421580000
 H         3.91454623020000    1.50518955450000   -0.24231219610000
 H        -1.21435178160000   -1.51666157400000    0.09819781760000
$end

$rem
 BASIS = 6-31G*
 GUI = 2
 METHOD = B3LYP
 PRINT_ORBITALS false
 MOLDEN_FORMAT false
$end