$molecule
0 1
 C         3.55932167040000   -2.50222333530000    0.11701008400000
 C         3.32603157170000   -1.20714147930000   -0.05542481440000
 C         2.02469474740000   -0.54621861090000   -0.03914014190000
 C         0.82601008290000   -1.24842347660000   -0.04139967810000
 C        -0.39918729650000   -0.58107407140000   -0.02224333060000
 C        -1.61048494850000   -1.38839939810000   -0.02775009470000
 C        -2.87182973230000   -0.98600067070000    0.00028643070000
 F        -3.33878005690000    0.25491394980000    0.04025733240000
 F        -3.90266628970000   -1.83159607470000   -0.00773070800000
 C        -0.41445323440000    0.80887458450000   -0.00049829180000
 C         0.78045376150000    1.52731807200000   -0.00261700630000
 O         0.64665711930000    2.88083196100000    0.01637272600000
 C         1.80733470030000    3.67562131600000    0.01665636650000
 C         1.99195898260000    0.85042383050000   -0.02567006270000
 H         4.56011393600000   -2.89784981360000    0.09297365070000
 H         2.77532708040000   -3.21789660850000    0.29533888030000
 H         4.16663736490000   -0.54175503190000   -0.21191435770000
 H         0.83510927210000   -2.32620079820000   -0.06783142800000
 H        -1.47392131580000   -2.45989340530000   -0.05723149450000
 H        -1.33330360770000    1.36904465350000    0.01480334030000
 H         1.45734052950000    4.70642012140000    0.03591928870000
 H         2.40584379160000    3.51502240800000   -0.88607104590000
 H         2.42409122400000    3.48761909020000    0.90162024890000
 H         2.92702836280000    1.38894741630000   -0.02784862180000
$end

$rem
 BASIS = 6-31G*
 GUI = 2
 METHOD = B3LYP
 PRINT_ORBITALS false
 MOLDEN_FORMAT false
$end