$molecule
0 1
 C        -5.49535697250000   -1.15749596760000    0.02539552980000
 C        -4.89349302350000    0.02609805910000   -0.01195411450000
 C        -3.45762703690000    0.27084498250000   -0.00962268520000
 C        -3.00114444400000    1.59112174720000   -0.01145686820000
 C        -1.65034258080000    1.91081153960000   -0.00703942640000
 C        -0.72920728100000    0.88248605170000   -0.00210514040000
 C        -1.17537424870000   -0.45379625350000   -0.00264629880000
 C        -2.51390404080000   -0.76748051580000   -0.00633059120000
 C        -0.00000019760000   -1.36540044310000    0.00069945550000
 O        -0.00000574150000   -2.57446692750000    0.00095844500000
 C         1.17538178250000   -0.45380437220000    0.00346970770000
 C         2.51390988710000   -0.76749413060000    0.00701270650000
 C         3.45763809960000    0.27082761160000    0.00978215530000
 C         4.89350081730000    0.02605944340000    0.01168322480000
 C         5.49527769300000   -1.15747425760000   -0.02857193610000
 C         3.00116877790000    1.59110863230000    0.01137576530000
 C         1.65036623810000    1.91080113430000    0.00705569380000
 C         0.72922635830000    0.88248038360000    0.00252571570000
 H        -6.56879391820000   -1.23736390810000    0.02128849560000
 H        -4.95512698010000   -2.08743217670000    0.06269356490000
 H        -5.50212846560000    0.92186366240000   -0.04475053050000
 H        -3.72811087990000    2.39151405640000   -0.01534835410000
 H        -1.33468951580000    2.94350959540000   -0.00772786930000
 H        -2.81845708460000   -1.80200139880000   -0.00853879650000
 H         2.81847066400000   -1.80201079160000    0.00969693850000
 H         5.50218399490000    0.92172475170000    0.04655553180000
 H         4.95493474510000   -2.08731654220000   -0.06832074050000
 H         6.56871446370000   -1.23737547000000   -0.02455774890000
 H         3.72814401280000    2.39149893750000    0.01495027350000
 H         1.33471381590000    2.94350020010000    0.00750970460000
$end

$rem
 BASIS = 6-31G*
 GUI = 2
 METHOD = B3LYP
 PRINT_ORBITALS false
 MOLDEN_FORMAT false
$end