$molecule
0 1
 C        -3.24105901750000    1.82697703700000   -0.37850007220000
 C        -2.04566838040000    1.96136090320000    0.18086788340000
 C        -0.97587847410000    0.98410893030000    0.12929937780000
 C         0.40326672600000    1.29449545990000    0.12553268040000
 C         1.07964371360000    0.09824658750000    0.03399230050000
 C         2.51373524360000   -0.22826567410000   -0.02714277810000
 O         2.94317957340000   -1.34335676320000   -0.12321518600000
 O         3.34265320080000    0.83676668110000    0.03255416590000
 O         0.19675638390000   -0.91976353120000   -0.00119525140000
 C        -1.04136632330000   -0.40547879300000    0.05816106910000
 C        -2.17232815510000   -1.29640828830000    0.11474843390000
 C        -2.08136578400000   -2.60789770450000   -0.09103284950000
 H        -3.98232491180000    2.60392647810000   -0.30574236660000
 H        -3.51396358800000    0.95454845940000   -0.94661486140000
 H        -1.79138654070000    2.88028375990000    0.69445121120000
 H         0.81310412480000    2.28561314690000    0.16869383920000
 H         2.86997838750000    1.67473931340000    0.10893011350000
 H        -3.11438101260000   -0.82792975110000    0.35873846190000
 H        -1.14062106480000   -3.06967602090000   -0.33782349600000
 H        -2.94139789000000   -3.24995068700000   -0.02148665700000
$end

$rem
 BASIS = 6-31G*
 GUI = 2
 METHOD = B3LYP
 PRINT_ORBITALS false
 MOLDEN_FORMAT false
$end