$molecule
0 1
 C        -2.84886228350000   -3.05174502430000   -0.04156898570000
 C        -3.01596396420000   -1.73473046770000   -0.09926943120000
 C        -1.91625149060000   -0.80786916710000   -0.03247802230000
 N        -0.65100495260000   -1.08764289750000    0.08501670080000
 C        -0.01039239610000    0.11380747010000    0.10480444390000
 C         1.44504748880000    0.26340598280000    0.22588560920000
 O         2.00851050060000    1.33504542290000    0.24233072270000
 O         2.05843847290000   -0.91213708990000    0.32645599850000
 C         3.48030576940000   -0.89103733400000    0.43536179580000
 C         4.14085883890000   -0.77003939410000   -0.93108948980000
 C        -0.95727283010000    1.12359005800000   -0.00747343160000
 C        -0.81083805170000    2.55124160070000   -0.03756532880000
 C        -1.83414084120000    3.39501264410000   -0.14854597230000
 O        -2.16346658200000    0.52354551080000   -0.09373653360000
 H        -3.68243116110000   -3.72958568580000   -0.09258655320000
 H        -1.86327089960000   -3.47127349540000    0.05898587370000
 H        -3.99050510090000   -1.27832340020000   -0.19958894040000
 H         3.74045231050000   -1.83624434880000    0.91597788310000
 H         3.77694461410000   -0.05126862020000    1.07324736550000
 H         3.80320125210000   -1.57252068200000   -1.58234802500000
 H         5.22000934640000   -0.82914175610000   -0.82151040220000
 H         3.88430886020000    0.18472519020000   -1.38359329230000
 H         0.21214355640000    2.88877551970000    0.03885064880000
 H        -2.84950287880000    3.04235140140000   -0.22322342480000
 H        -1.68366002410000    4.45967893210000   -0.16758677740000
$end

$rem
 BASIS = 6-31G*
 GUI = 2
 METHOD = B3LYP
 PRINT_ORBITALS false
 MOLDEN_FORMAT false
$end