$molecule
0 1
 C            0.87096900820000       -4.16686467460000       -0.65906700090000
 C            1.35117085820000       -3.15349264590000        0.04791334280000
 C            0.86465963950000       -1.77604403600000       -0.04575614500000
 C           -0.47812809990000       -1.53816472530000       -0.21122313850000
 C           -1.02065211740000       -0.23855319450000       -0.26464098170000
 C           -2.46380170750000       -0.08607171890000       -0.42552174720000
 C           -3.21979930210000        0.84601577960000        0.13272529660000
 F           -2.84475131120000        1.78969402780000        0.97835632000000
 F           -4.53572360290000        0.92166455930000       -0.05421922370000
 C           -0.14816571470000        0.82223709730000       -0.17697898640000
 F           -0.61006755190000        2.08345144780000       -0.29446224320000
 C            1.24247697810000        0.64795494840000       -0.01690514950000
 C            2.11530488630000        1.75328352010000        0.06364514830000
 C            3.46113569080000        1.56408549480000        0.20345582960000
 C            3.98411435410000        0.26506687130000        0.25816106570000
 C            3.15779289950000       -0.82334859410000        0.18158366160000
 C            1.76219230700000       -0.67224812730000        0.05414544420000
 H            1.24985589370000       -5.16750181410000       -0.54200518100000
 H            0.09663731920000       -4.03297521680000       -1.39578941210000
 H            2.15027408310000       -3.32866379460000        0.75545670160000
 H           -1.16051476580000       -2.37264831830000       -0.26768642140000
 H           -2.97189436600000       -0.81943559460000       -1.03340191530000
 H            1.69679704230000        2.74696594200000        0.01177575370000
 H            4.12717711280000        2.41129213460000        0.26668471160000
 H            5.05059967160000        0.12670315640000        0.35759387750000
 H            3.58189731360000       -1.81482620730000        0.20850760570000
$end

$rem
 BASIS = 6-31G*
 GUI = 2
 METHOD = B3LYP
 PRINT_ORBITALS false
 MOLDEN_FORMAT false
$end