$molecule
0 1
 C        -3.77343337120000    0.26745288450000    0.00073268950000
 C        -2.80589434360000    1.17934246440000   -0.00181593070000
 C        -1.37018632420000    0.95508815730000   -0.00057466960000
 C        -0.53621755050000    2.06013764690000    0.00039024740000
 C         0.85261176490000    1.96368775910000    0.00177608290000
 C         1.49552152240000    0.74222702880000    0.00216619800000
 C         2.93862717020000    0.57712709270000    0.00365354970000
 C         3.84392270640000    1.55045363800000   -0.00734500000000
 C         0.67766378070000   -0.42529623390000    0.00156515470000
 N         1.27774197750000   -1.63252307200000    0.00239264090000
 C         0.52479687040000   -2.69830710800000    0.00110859980000
 C        -0.87739872700000   -2.60487723520000   -0.00133470300000
 N        -1.48909340820000   -1.45192794970000   -0.00179937280000
 C        -0.74629357810000   -0.32739976490000   -0.00019364340000
 H        -4.80915674990000    0.56494509770000   -0.00043498880000
 H        -3.55916186450000   -0.78509129240000    0.00391221900000
 H        -3.07674295490000    2.22996801550000   -0.00473503620000
 H        -0.98209359320000    3.04545291810000    0.00024081180000
 H         1.43183341890000    2.87422940260000    0.00314811920000
 H         3.25793589010000   -0.45568809530000    0.01358880990000
 H         3.58381387280000    2.59556808320000   -0.01917799560000
 H         4.89737602770000    1.32949632550000   -0.00536456180000
 H         1.03228192790000   -3.65407810820000    0.00194399100000
 H        -1.50499150040000   -3.48673292350000   -0.00289817620000
$end

$rem
 BASIS = 6-31G*
 GUI = 2
 METHOD = B3LYP
 PRINT_ORBITALS false
 MOLDEN_FORMAT false
$end