$molecule
0 1
 C           -3.94669784690000        1.32403533000000        0.50685835980000
 C           -3.45083759530000        0.38997326870000       -0.29068060730000
 C           -2.11752155530000       -0.21369880790000       -0.17188894530000
 C           -2.05029883530000       -1.60552259970000       -0.24046630510000
 C           -0.85012236640000       -2.26880345630000       -0.08682900100000
 C            0.30763078880000       -1.54644729030000        0.12875446870000
 C            0.27179590970000       -0.15478968100000        0.16741383790000
 C            1.49647428030000        0.60605322620000        0.41334245550000
 C            2.71805466660000        0.25848359390000        0.04553057210000
 F            3.08087691800000       -0.81143688510000       -0.65319903700000
 F            3.80324503290000        0.98377307950000        0.31954914260000
 C           -0.94479827710000        0.52678045740000        0.00587812410000
 C           -0.94910365140000        2.02658866300000       -0.04756262680000
 H           -4.95227042880000        1.69122769230000        0.38843093840000
 H           -3.38042819600000        1.73996642520000        1.32281425750000
 H           -4.07556767600000       -0.03848773050000       -1.06541719240000
 H           -2.96076110280000       -2.16552834740000       -0.39866061870000
 H           -0.81482934450000       -3.34682889660000       -0.12951297730000
 H            1.24219371280000       -2.06416651460000        0.27480618270000
 H            1.41633229470000        1.53871592070000        0.95031465820000
 H           -0.11884161350000        2.38516238420000       -0.65328576310000
 H           -0.84848127600000        2.45198272290000        0.95144191890000
 H           -1.87557636690000        2.39302074990000       -0.48022467830000
$end

$rem
 BASIS = 6-31G*
 GUI = 2
 METHOD = B3LYP
 PRINT_ORBITALS false
 MOLDEN_FORMAT false
$end