$molecule
0 1
 C           -4.48213152600000        0.38993902930000        0.12434726530000
 C           -3.30533660560000        0.71347341830000       -0.39214287560000
 C           -2.05935721280000       -0.00934248170000       -0.12292904070000
 C           -2.08639553960000       -1.39585403000000        0.00076223060000
 C           -0.92613695400000       -2.10652193450000        0.23872134310000
 C            0.27298161030000       -1.43540284910000        0.36725871440000
 C            0.32568211240000       -0.04598502380000        0.25435612610000
 C            1.61231688970000        0.63003843730000        0.44915978390000
 C            2.77551021980000        0.18969871540000        0.00359180880000
 F            2.99359143560000       -0.88862269320000       -0.74086417770000
 F            3.93675008770000        0.80551247550000        0.22827932300000
 C           -0.84300680130000        0.67870902730000       -0.00453391620000
 C           -0.82979105820000        2.17023909390000       -0.17309314670000
 H           -5.37501793490000        0.94389079130000       -0.11048354900000
 H           -4.59711127700000       -0.42759693340000        0.81655744310000
 H           -3.23271529200000        1.56370271690000       -1.05708017750000
 H           -3.02515022670000       -1.91614978530000       -0.11409466820000
 H           -0.95536475900000       -3.18204769460000        0.32647326230000
 H            1.17737814040000       -1.98649681730000        0.57268011400000
 H            1.63983366900000        1.54454693600000        1.02176394480000
 H            0.15700488260000        2.59168834320000       -0.01613074740000
 H           -1.52627973610000        2.63649237790000        0.52259403650000
 H           -1.14165247350000        2.43228301820000       -1.18431348610000
$end

$rem
 BASIS = 6-31G*
 GUI = 2
 METHOD = B3LYP
 PRINT_ORBITALS false
 MOLDEN_FORMAT false
$end