$molecule
0 1
 C        -3.91305235040000    0.32659639910000   -0.02323702970000
 C        -2.98660809660000   -0.62492669610000    0.00004520810000
 C        -1.54356210640000   -0.43379093200000    0.00385949270000
 C        -0.70553324890000   -1.55255712010000    0.01310779840000
 C         0.66620996750000   -1.42621311660000    0.01663020700000
 C         1.28460252190000   -0.17369451360000    0.01162508550000
 C         2.72639114670000    0.02458106060000    0.01634165350000
 C         3.65139228440000   -0.92678789330000   -0.04020541080000
 C         0.42805955290000    0.93182196730000    0.00518761190000
 F         0.96083159870000    2.17628963370000    0.00165302620000
 C        -0.94421042600000    0.82584480920000    0.00029781930000
 H        -4.96177769110000    0.08439045790000   -0.02429268710000
 H        -3.67323888350000    1.37558183910000   -0.04262315910000
 H        -3.30030182570000   -1.66154142630000    0.01701756370000
 H        -1.14652399080000   -2.53905820480000    0.01802918510000
 H         1.27736575100000   -2.31473828450000    0.02699436030000
 H         3.03873087270000    1.05959410840000    0.06654927540000
 H         3.41163422570000   -1.97457986960000   -0.09927767070000
 H         4.69956719210000   -0.68320166130000   -0.03215313260000
 H        -1.53201638770000    1.72926673850000   -0.00492799170000
$end

$rem
 BASIS = 6-31G*
 GUI = 2
 METHOD = B3LYP
 PRINT_ORBITALS false
 MOLDEN_FORMAT false
$end