$molecule
0 1
 C         3.78305171880000    1.54425681860000   -0.15238124720000
 C         3.34987631120000    0.29804543270000   -0.00401199340000
 C         1.95865595670000   -0.13147162420000    0.02936098920000
 C         0.86902294260000    0.74036112650000   -0.03477257060000
 C        -0.42074196590000    0.23209995150000    0.01077831540000
 C        -1.53786861030000    1.22893366200000    0.05156527980000
 O        -1.58987188030000    2.18485656480000   -0.66869476960000
 O        -2.45647604880000    1.03385220760000    1.01714581790000
 C        -0.60710473970000   -1.15878137090000    0.07191052110000
 C        -1.90315006820000   -1.82369002250000   -0.01314862320000
 C        -2.93550079420000   -1.38060155940000   -0.72120691110000
 C         0.55667349050000   -1.93278448790000    0.15523269700000
 N         1.77571778340000   -1.44958879980000    0.14314833680000
 H         4.83545383130000    1.76919957890000   -0.17064473020000
 H         3.11924747900000    2.38451366880000   -0.26534285840000
 H         4.05051536610000   -0.51928456450000    0.09851461000000
 H         1.00508199450000    1.80771897580000   -0.09857935780000
 H        -2.32253425980000    0.20354776910000    1.49368093190000
 H        -1.95999141020000   -2.78241160210000    0.48781522400000
 H        -2.89752093020000   -0.45896410000000   -1.27873285120000
 H        -3.85481872040000   -1.93667556640000   -0.78248744850000
 H         0.48312387490000   -3.01119893230000    0.22478770520000
$end

$rem
 BASIS = 6-31G*
 GUI = 2
 METHOD = B3LYP
 PRINT_ORBITALS false
 MOLDEN_FORMAT false
$end