$molecule
0 1
 C        -2.35138499180000   -1.85894657580000   -0.68003970170000
 C        -2.42070174230000   -0.70285116030000   -0.03356832910000
 C        -1.36385108760000    0.30509238820000    0.02907747700000
 C        -1.72592417020000    1.65316725180000    0.08692301060000
 N        -0.85983750530000    2.64470839010000    0.14305273270000
 C         0.42377122870000    2.35252725130000    0.13289982320000
 C         0.93746213010000    1.05201820450000    0.06097214460000
 C         2.39242327920000    0.89037602070000    0.08295348930000
 C         3.10049977400000    0.06905063090000   -0.67804174040000
 C         0.00825282500000    0.00425166980000    0.02769753430000
 C         0.45200118710000   -1.42717949880000    0.11747275770000
 O         1.03562055760000   -2.02618968140000   -0.73826744320000
 O         0.14778247130000   -2.01897819320000    1.28954037420000
 H        -3.18942311800000   -2.53429658660000   -0.70250007260000
 H        -1.47718979740000   -2.17019238450000   -1.22483742050000
 H        -3.34454705020000   -0.41287146020000    0.45251364800000
 H        -2.76971643940000    1.93834414380000    0.09306035210000
 H         1.09763148180000    3.19755898880000    0.18542587440000
 H         2.89978577940000    1.58112642990000    0.74705625280000
 H         2.64528960580000   -0.60352799040000   -1.38281195120000
 H         4.17557834780000    0.04890976840000   -0.61680210760000
 H        -0.34975294530000   -1.44108709480000    1.88286680770000
$end

$rem
 BASIS = 6-31G*
 GUI = 2
 METHOD = B3LYP
 PRINT_ORBITALS false
 MOLDEN_FORMAT false
$end