$molecule
0 1
 C           -4.77074506350000        0.07057165960000       -0.16972620210000
 C           -3.74381371010000       -0.75268552870000        0.00819500650000
 C           -2.33286382870000       -0.39456486200000        0.05026807270000
 C           -1.38226328760000       -1.40154365920000        0.22470125150000
 C           -0.03775224100000       -1.10550514870000        0.26939888270000
 C            0.41537454690000        0.20866863950000        0.14250083720000
 C            1.83340378160000        0.53299907030000        0.20699813930000
 C            2.85642355850000       -0.27969111640000       -0.00902657370000
 F            2.82866600730000       -1.56082210830000       -0.35920059230000
 F            4.12841899400000        0.11216459830000        0.08375565770000
 C           -0.52887162930000        1.23620197320000       -0.02950650700000
 C           -0.10593917110000        2.66738239630000       -0.18219890150000
 C           -1.87385222970000        0.91686468610000       -0.07377251410000
 H           -5.78304374430000       -0.29510243660000       -0.18584444010000
 H           -4.65356451030000        1.13178451920000       -0.30686950700000
 H           -3.93931746740000       -1.81051542050000        0.13712205920000
 H           -1.70532681560000       -2.42729726410000        0.32839602520000
 H            0.67036604260000       -1.90442412790000        0.41936999570000
 H            2.10534317430000        1.54847553050000        0.45070032430000
 H            0.37665492350000        3.02737989680000        0.72639147960000
 H           -0.96925204240000        3.29823115820000       -0.37750287970000
 H            0.59478179110000        2.77942098190000       -1.00803930030000
 H           -2.58741673340000        1.71535883800000       -0.20930267960000
$end

$rem
 BASIS = 6-31G*
 GUI = 2
 METHOD = B3LYP
 PRINT_ORBITALS false
 MOLDEN_FORMAT false
$end