$molecule
0 1
 C        -4.04890346110000   -0.23501222290000   -0.01322380940000
 C        -3.00586270550000    0.58657498500000    0.03065015440000
 C        -1.59306267060000    0.23281548620000    0.04552698250000
 C        -0.65122976300000    1.25747702050000    0.11450101820000
 C         0.72132620780000    1.03791867610000    0.14944626100000
 O         1.47472939970000    2.17654461760000    0.20994108920000
 C         2.73754895230000    2.23213387470000   -0.42066720310000
 C         1.21323871460000   -0.27755155470000    0.13632850320000
 C         2.62911820750000   -0.61731752050000    0.29696391790000
 C         3.23544290890000   -1.62467272830000   -0.31572442130000
 C         0.28106019040000   -1.30905149600000    0.03126781270000
 C        -1.07237492900000   -1.06289121420000   -0.01604100530000
 F        -1.88580319320000   -2.14026527300000   -0.10783680960000
 H        -5.05320739530000    0.15432975340000   -0.01682540910000
 H        -3.95780461240000   -1.30519345620000   -0.04582400290000
 H        -3.18216047110000    1.65499585750000    0.06459445940000
 H        -0.98476414240000    2.28368807480000    0.14581169280000
 H         2.79926387670000    3.20976447860000   -0.90403958860000
 H         2.85247065180000    1.45092761190000   -1.17380202540000
 H         3.54559347400000    2.15485676910000    0.31170040320000
 H         3.18150478610000   -0.00440267400000    0.99629874950000
 H         2.72654737040000   -2.24605771640000   -1.03355015290000
 H         4.27135845040000   -1.85375353110000   -0.13459375980000
 H         0.61926397270000   -2.33346067260000    0.02520090140000
$end

$rem
 BASIS = 6-31G*
 GUI = 2
 METHOD = B3LYP
 PRINT_ORBITALS false
 MOLDEN_FORMAT false
$end