$molecule
0 1
 C         0.67018887090000   -4.62236580050000   -0.17452595200000
 C        -0.29497309930000   -3.71745368160000   -0.28108015510000
 C        -0.14359653080000   -2.26958604330000   -0.18246401430000
 C         1.09577332510000   -1.63832897270000   -0.12479214580000
 C         1.21490723660000   -0.25266933900000   -0.02696735980000
 C         2.55382111660000    0.31415137200000    0.02832652570000
 C         2.90378352460000    1.58704980700000    0.14858645800000
 F         2.11400945620000    2.64434905240000    0.24755658160000
 F         4.17016150260000    1.98588614110000    0.18948874760000
 C         0.05575207800000    0.52318929980000    0.01102973950000
 C        -1.18113411090000   -0.10041881590000   -0.05433217980000
 C        -2.41513040370000    0.75644785660000    0.00947509080000
 F        -2.32026638810000    1.85214958170000   -0.76067012080000
 F        -3.52524834720000    0.11332313380000   -0.37977866540000
 F        -2.65560657210000    1.19795806110000    1.25969427730000
 C        -1.29258497140000   -1.47734969850000   -0.14857727020000
 H         0.45790249560000   -5.67402649120000   -0.25744372450000
 H         1.69968577520000   -4.36436087190000    0.00508625700000
 H        -1.31177816260000   -4.05004171770000   -0.44557396780000
 H         1.99504904130000   -2.23292783650000   -0.16271934900000
 H         3.37617218410000   -0.38365569900000   -0.03311183240000
 H         0.10124153630000    1.59709488210000    0.08208336920000
 H        -2.26827763270000   -1.93673421500000   -0.19638884610000
$end

$rem
 BASIS = 6-31G*
 GUI = 2
 METHOD = B3LYP
 PRINT_ORBITALS false
 MOLDEN_FORMAT false
$end