$molecule
0 1
 C        -2.41821148230000    3.56921011240000    0.06586730580000
 C        -2.99327240130000    2.37395031090000    0.03907993540000
 C        -2.24639678380000    1.13749050590000    0.01920920430000
 N        -2.85489590290000   -0.07809489880000   -0.00984976520000
 C        -1.88550977290000   -0.95967280280000   -0.01817047900000
 C        -2.20741265940000   -2.36459072390000   -0.05935280610000
 C        -1.40231480520000   -3.42034421710000   -0.08170306600000
 N        -0.67340154350000   -0.27734565200000    0.00517906650000
 C         0.67693963460000   -0.67544070620000    0.01651182740000
 O         1.03085161510000   -1.82259661980000    0.06316089020000
 O         1.43306680250000    0.39583252440000   -0.02855718930000
 C         2.88283575780000    0.29366679130000   -0.01295020550000
 C         3.36768061950000   -0.48275451140000   -1.23581984350000
 C         3.34511213200000    1.74831006610000   -0.07643360700000
 C         3.34690623390000   -0.36631874760000    1.28404282610000
 N        -0.93661946930000    1.04748354430000    0.02704626060000
 H        -2.99675974430000    4.47670376900000    0.08054192200000
 H        -1.34570171960000    3.66158277850000    0.07363733280000
 H        -4.06603400430000    2.24632982120000    0.03046280260000
 H        -3.28197753720000   -2.49681141610000   -0.07563670510000
 H        -0.33139509110000   -3.33953709840000   -0.06362212040000
 H        -1.81796811070000   -4.41339178230000   -0.11666220880000
 H         2.97626822840000   -0.03058300590000   -2.14456015460000
 H         3.03899144570000   -1.51734787090000   -1.18755041320000
 H         4.45312784030000   -0.46143563730000   -1.27214386510000
 H         2.97405006830000    2.21600947140000   -0.98402845540000
 H         4.42985305470000    1.79530371160000   -0.06775837880000
 H         2.95615362250000    2.29800986570000    0.77599030000000
 H         3.01692297520000   -1.40080031140000    1.32654501900000
 H         2.94164037430000    0.16834614020000    2.14038634980000
 H         4.43166363810000   -0.34230365320000    1.33580999330000
$end

$rem
 BASIS = 6-31G*
 GUI = 2
 METHOD = B3LYP
 PRINT_ORBITALS false
 MOLDEN_FORMAT false
$end