$molecule
0 1
C           -4.44914360000000       -0.77839381440000        0.26502366870000
C           -3.63707225460000        0.26483080200000        0.36973643370000
C           -2.20425706630000        0.24360580980000        0.08032837780000
C           -1.45605036510000       -0.90672687410000        0.30679058290000
C           -0.09152069030000       -0.97773547190000        0.06907069670000
C            0.62510064780000       -2.27147726840000        0.30548171620000
C            0.55259964290000        0.16452508690000       -0.41596090730000
C            1.98773482750000        0.23394150060000       -0.70152179210000
C            2.97224095060000       -0.16962186320000        0.08117962710000
F            2.87407867010000       -0.71230529640000        1.28919100210000
F            4.26325097430000       -0.05352664270000       -0.23642981560000
C           -0.19973510990000        1.30939450250000       -0.67935142660000
C           -1.55717894060000        1.37914782100000       -0.43064196270000
C           -2.31243236340000        2.63883602980000       -0.73142314770000
H           -5.49737108630000       -0.70368010380000        0.49927350200000
H           -4.10651263740000       -1.74104464300000       -0.07577728430000
H           -4.04010552930000        1.21940893710000        0.68127783040000
H           -1.95582395440000       -1.77948757570000        0.70074494730000
H           -0.06310986280000       -3.10691975980000        0.19922493710000
H            1.03641468120000       -2.30175762750000        1.31389148680000
H            1.44512288660000       -2.40168978260000       -0.39769395740000
H            2.28293054030000        0.71901639580000       -1.62109627240000
H            0.30753094240000        2.17805184540000       -1.07597411460000
H           -1.66627325560000        3.36388309260000       -1.21989368360000
H           -2.69295703660000        3.08624867900000        0.18695150470000
H           -3.16057572260000        2.43357506040000       -1.38264072900000
$end

$rem
BASIS = 6-31G*
GUI = 2
METHOD = B3LYP
PRINT_ORBITALS false
MOLDEN_FORMAT false
$end
