$molecule
0 1
 C        -4.50539049690000   -1.38276203970000    0.28747984980000
 C        -3.64186918910000   -0.40624971250000    0.53806167070000
 C        -2.24583382930000   -0.35472141620000    0.12231297890000
 C        -1.58828898800000   -1.42240614950000   -0.49031939860000
 C        -0.26264633500000   -1.31250971980000   -0.85192147240000
 C         0.45765297720000   -0.14045463590000   -0.64401084770000
 C         1.92379758070000   -0.12969479110000   -0.99133358300000
 C         2.72476483220000   -0.55171042260000    0.23734123160000
 O         3.34893525300000   -1.56829107210000    0.31046256080000
 O         2.67399287870000    0.31559057570000    1.25808152440000
 C        -0.18619201360000    0.94040687500000   -0.03099286920000
 C         0.46472017240000    2.23554849350000    0.24873631900000
 C         1.04005781800000    3.01539703280000   -0.65503101130000
 C        -1.51616481450000    0.80835768610000    0.35248710500000
 H        -5.52317434260000   -1.33099507090000    0.63395701870000
 H        -4.24302682490000   -2.26479031240000   -0.27097725040000
 H        -3.97640510970000    0.45968330950000    1.09656654020000
 H        -2.10933421270000   -2.34898365580000   -0.67046224760000
 H         0.23747147830000   -2.15611830530000   -1.30455927800000
 H         2.26263028810000    0.85901371160000   -1.29974498790000
 H         2.12778161170000   -0.84413778990000   -1.78834665460000
 H         2.11029266560000    1.08194512560000    1.05967884460000
 H         0.37002820640000    2.58246358250000    1.27279735550000
 H         1.09086214230000    2.74397355660000   -1.69700265200000
 H         1.45943084270000    3.97180934240000   -0.39209298640000
 H        -1.99967074730000    1.64910377280000    0.83132944840000
$end

$rem
 BASIS = 6-31G*
 GUI = 2
 METHOD = B3LYP
 PRINT_ORBITALS false
 MOLDEN_FORMAT false
$end