$molecule
0 1
 C        -4.47845457780000   -0.56443771450000   -0.04520004060000
 C        -3.24117636620000   -1.02744571480000    0.09015646130000
 C        -2.01875682220000   -0.24010753020000    0.05563448590000
 C        -1.98774096500000    1.15898483220000   -0.01299845760000
 N        -0.88619450500000    1.86605599760000   -0.06254297670000
 C         0.30673364970000    1.26857360960000   -0.02870180650000
 C         1.47107321180000    2.13689762920000   -0.12319950130000
 C         1.37166581650000    3.46172418100000   -0.17428203320000
 C         0.40016556730000   -0.13722151860000    0.07063948150000
 C         1.69411040200000   -0.85815890390000    0.14823420460000
 O         2.73605371020000   -0.41545867590000    0.56531806590000
 O         1.57732087370000   -2.11802797670000   -0.30752162220000
 C         2.75917992900000   -2.90184727830000   -0.26282322160000
 C        -0.77910621760000   -0.87385859590000    0.10515455620000
 H        -5.32786368420000   -1.22447415480000   -0.00842169620000
 H        -4.69623324590000    0.47806180970000   -0.20041021420000
 H        -3.08582377140000   -2.09021091660000    0.23310201340000
 H        -2.90177653020000    1.73780482900000   -0.02441897800000
 H         2.43364462010000    1.65033012150000   -0.13551333970000
 H         0.40861477280000    3.94200319080000   -0.14364596770000
 H         2.24167299970000    4.09129216300000   -0.24513877470000
 H         2.48993878670000   -3.87997044290000   -0.65318124070000
 H         3.12272631890000   -2.98286306100000    0.76392222160000
 H         3.54024251730000   -2.44616098420000   -0.87517539200000
 H        -0.72692163570000   -1.95059207060000    0.17965822430000
$end

$rem
 BASIS = 6-31G*
 GUI = 2
 METHOD = B3LYP
 PRINT_ORBITALS false
 MOLDEN_FORMAT false
$end