$molecule
0 1
C           -2.33480178700000        3.30025857590000        0.16577314590000
C           -2.81763362610000        2.08484085940000       -0.06190461860000
C           -2.05161320750000        0.84550494650000       -0.10957565100000
C           -2.72466159180000       -0.37840990110000       -0.09713634710000
C           -2.02749441460000       -1.56558157060000       -0.10470626670000
C           -0.63484848480000       -1.58362989640000       -0.14956437360000
O           -0.05852887580000       -2.82223706130000       -0.14509851390000
C            1.10524980550000       -3.05392061890000        0.62546986850000
C            0.06105099090000       -0.36490652770000       -0.23046275310000
C            1.50797537420000       -0.33553632990000       -0.44320105970000
C            2.34301032580000        0.60026565170000       -0.02380176560000
F            2.05717586100000        1.65758436060000        0.72922224760000
F            3.64937183640000        0.59470061090000       -0.28847467460000
C           -0.66354263500000        0.82309666340000       -0.19100192310000
H           -2.97897451510000        4.16227607930000        0.18992120330000
H           -1.29018937950000        3.48703188030000        0.34639731160000
H           -3.88325098110000        1.96001470100000       -0.21079955390000
H           -3.80409505920000       -0.39404007980000       -0.06037580920000
H           -2.54227753840000       -2.51322117440000       -0.07386465480000
H            0.92765149860000       -3.96473477510000        1.20257997800000
H            1.31103775170000       -2.23187921710000        1.31261409740000
H            1.97152382260000       -3.21654787960000       -0.02119899360000
H            1.94265821920000       -1.13057906290000       -1.02935108550000
H           -0.12766995880000        1.75458240360000       -0.27071301430000
$end

$rem
BASIS = 6-31G*
GUI = 2
METHOD = B3LYP
PRINT_ORBITALS false
MOLDEN_FORMAT false
$end
