$molecule
0 1
C           -1.64938934930000        4.67405476430000        0.17317148450000
C           -0.53944659430000        3.95284866640000        0.07723715660000
C           -0.44466417350000        2.49644767680000        0.07015374660000
C           -1.55872671080000        1.66427597990000       -0.01032844870000
C           -1.43961766760000        0.27441648880000       -0.01257761530000
C           -2.66290863990000       -0.51027916230000       -0.10184152060000
C           -2.79763733910000       -1.82789196790000       -0.12621157470000
F           -1.84737679400000       -2.75101284690000       -0.07545738240000
F           -3.98079224480000       -2.43278800140000       -0.21072941270000
C           -0.17048228890000       -0.29791841190000        0.06844448280000
C            0.94987416090000        0.52017038800000        0.14557752370000
C            2.32340334890000       -0.04454997360000        0.22938732700000
O            3.32334128370000        0.62993385530000        0.28187206260000
O            2.32341868220000       -1.38099043270000        0.25192019630000
C            3.59410554870000       -2.02768344410000        0.31551326570000
C            4.22922237340000       -2.14311333590000       -1.06282242310000
C            0.81416205090000        1.90307062890000        0.14254074460000
H           -1.61687511500000        5.74982006890000        0.17482512230000
H           -2.62841001480000        4.23481710560000        0.26069996200000
H            0.41407231650000        4.46087035300000        0.00922342160000
H           -2.54351700620000        2.09991167910000       -0.08115829100000
H           -3.58885637430000        0.04406274480000       -0.15609947160000
H           -0.03706220150000       -1.36592398710000        0.07043956430000
H            3.38817215490000       -3.01299433810000        0.73872921570000
H            4.24762032770000       -1.46043144000000        0.98667356730000
H            3.55913635500000       -2.66320836920000       -1.74323161140000
H            5.16130699210000       -2.69585877200000       -0.98898647600000
H            4.43745588020000       -1.15230126720000       -1.45914077940000
H            1.70745454940000        2.50716810250000        0.20252608980000
$end

$rem
BASIS = 6-31G*
GUI = 2
METHOD = B3LYP
PRINT_ORBITALS false
MOLDEN_FORMAT false
$end
