$molecule
0 1
 C         3.77450572340000    1.98466144580000   -0.04424242200000
 C         2.47081868430000    1.74606402510000    0.02831269090000
 C         1.82100039370000    0.43964764890000    0.01821595240000
 C         2.53120043620000   -0.76211154050000    0.01572896880000
 C         1.86125330060000   -1.97067857120000    0.00526073740000
 C         0.47984309830000   -2.00702149530000   -0.00299592280000
 C        -0.25770511410000   -0.82086154610000    0.00114324440000
 C        -1.70959801710000   -0.91980849300000   -0.00636242920000
 C        -2.60571113370000    0.05536614330000   -0.00604615530000
 F        -2.39346415250000    1.36624772080000    0.00151742960000
 F        -3.91999948920000   -0.16555499120000   -0.01382006970000
 C         0.42815580780000    0.39124377580000    0.01332147340000
 H         4.15913843770000    2.98994702540000   -0.03155568600000
 H         4.50998549780000    1.20238689890000   -0.12192585650000
 H         1.78826997300000    2.58430034430000    0.09672573500000
 H         3.60954145590000   -0.75336313070000    0.02607816980000
 H         2.42073377180000   -2.89466071830000    0.00413574940000
 H        -0.03515726890000   -2.95632002360000   -0.01123427820000
 H        -2.12253305880000   -1.91852606790000   -0.01361360490000
 H        -0.11843192650000    1.32083733740000    0.01711169180000
$end

$rem
 BASIS = 6-31G*
 GUI = 2
 METHOD = B3LYP
 PRINT_ORBITALS false
 MOLDEN_FORMAT false
$end