$molecule
0 1
 C        -3.64800364800000    3.18957441810000    0.02196801150000
 C        -3.70108918490000    1.86433750410000   -0.01265391530000
 C        -2.52384845530000    1.02752643690000   -0.00019902950000
 N        -2.60073547370000   -0.33195908820000   -0.03472276180000
 C        -1.35987385750000   -0.74603636090000   -0.01472021860000
 C        -0.95694455190000   -2.12991553260000   -0.02655959530000
 C        -1.85422319550000   -3.10910604870000   -0.08525563850000
 N        -0.52250545430000    0.35881941820000    0.03269638460000
 C         0.87571903160000    0.52749532530000    0.07052407010000
 O         1.37285231730000    1.60790350260000    0.18619290450000
 O         1.49122247570000   -0.63974820570000   -0.04144776190000
 C         2.94796820300000   -0.70860817660000   -0.03533670740000
 C         3.49044924450000   -0.18468856690000    1.29206339390000
 C         3.24123811180000   -2.20098311790000   -0.18889747320000
 C         3.51244344050000    0.07641988990000   -1.21686060730000
 N        -1.28696496190000    1.46880506940000    0.04305237410000
 H        -4.53912575400000    3.79316438880000    0.01146713150000
 H        -2.70030152150000    3.69838907330000    0.06208254430000
 H        -4.63409483010000    1.32092050470000   -0.05305595040000
 H         0.10102545820000   -2.32981324460000    0.01493068690000
 H        -2.90624010430000   -2.88622813160000   -0.12819163960000
 H        -1.56018123780000   -4.14418668320000   -0.09163847280000
 H         3.03376629890000   -0.71978353050000    2.12220462440000
 H         3.27913202990000    0.87573542220000    1.39808853810000
 H         4.56577401500000   -0.33393536010000    1.32740932730000
 H         2.82092581490000   -2.75549659320000    0.64641031980000
 H         4.31414553950000   -2.36474129560000   -0.21480566080000
 H         2.80482648750000   -2.57556296610000   -1.11139909120000
 H         3.29734496120000    1.13580123760000   -1.10809082870000
 H         3.07385327440000   -0.27856190760000   -2.14716631590000
 H         4.58905308150000   -0.06056035230000   -1.26122124700000
$end

$rem
 BASIS = 6-31G*
 GUI = 2
 METHOD = B3LYP
 PRINT_ORBITALS false
 MOLDEN_FORMAT false
$end