$molecule
0 1
 C         2.20921472460000    0.47422256200000    2.90688484450000
 C         1.43110561600000    0.56247623870000    1.83409211310000
 C         1.62606711860000   -0.16993764930000    0.59815623610000
 C         2.83714083430000   -0.81114178060000    0.21852193120000
 C         2.79941600600000   -1.33764819190000   -1.02738109120000
 S         1.28418869290000   -1.08456862810000   -1.79934919070000
 C         0.67361812750000   -0.24715529390000   -0.40104236680000
 C        -0.67404862270000    0.24805137610000   -0.39995044560000
 S        -1.28659679790000    1.08683386530000   -1.79656557530000
 C        -2.80115662730000    1.33805918660000   -1.02267194980000
 C        -2.83721593450000    0.81006976610000    0.22265732320000
 C        -1.62533821270000    0.16917283470000    0.60021383400000
 C        -1.42852931550000   -0.56447109830000    1.83513127730000
 C        -2.20476196700000   -0.47690044810000    2.90932638720000
 H         2.01605897120000    1.06304681300000    3.78652721100000
 H         3.05466073650000   -0.19060194510000    2.95530847920000
 H         0.57782076460000    1.22807752360000    1.84457634320000
 H         3.70630386080000   -0.85233061660000    0.84904205850000
 H         3.57282938520000   -1.86221548890000   -1.55256929070000
 H        -3.57546419840000    1.86274829680000   -1.54642107120000
 H        -3.70573374250000    0.84987953580000    0.85415801190000
 H        -0.57543421960000   -1.23034952530000    1.84354820130000
 H        -3.04987855510000    0.18819153590000    2.95976161440000
 H        -2.01024699090000   -1.06650298460000    3.78814698690000
$end

$rem
 BASIS = 6-31G*
 GUI = 2
 METHOD = B3LYP
 PRINT_ORBITALS false
 MOLDEN_FORMAT false
$end