$molecule
0 1
C           -4.58130249330000       -0.48042365090000       -0.19925739130000
C           -3.63513491970000        0.34708263070000        0.22471637500000
C           -2.19884164970000        0.10956523840000        0.10157367450000
C           -1.69235177300000       -1.18762426700000        0.14359168310000
C           -0.34169055250000       -1.46651204410000        0.03941366270000
C            0.13062179390000       -2.88840431640000        0.11009960860000
C            0.55488937870000       -0.39655914490000       -0.11051310990000
C            1.98156660320000       -0.66043148630000       -0.23516809740000
C            2.98161454120000        0.18070925390000       -0.02190066450000
F            2.92186308850000        1.44712648460000        0.37672823730000
F            4.26344350750000       -0.16003387180000       -0.17254180450000
C            0.04988790320000        0.90303338630000       -0.15387078690000
C           -1.30165996450000        1.17692490390000       -0.04791033940000
C           -1.78232569640000        2.59514528380000       -0.11970688720000
H           -5.62644667330000       -0.25322940290000       -0.07577688450000
H           -4.35306933580000       -1.40478897730000       -0.70301756100000
H           -3.92026672520000        1.28099657930000        0.69053497020000
H           -2.38308560950000       -2.00605274620000        0.28469646750000
H           -0.70675641760000       -3.55466364220000        0.30094923440000
H            0.86019856240000       -3.01700003730000        0.90817244940000
H            0.59511612040000       -3.18947810440000       -0.82894182470000
H            2.28199257150000       -1.65500534860000       -0.52691475140000
H            0.73094161700000        1.72849956980000       -0.28865266530000
H           -0.95490722300000        3.26702147880000       -0.33265650060000
H           -2.23028041380000        2.89676251050000        0.82719171450000
H           -2.53376278380000        2.70887550780000       -0.89956718380000
$end

$rem
BASIS = 6-31G*
GUI = 2
METHOD = B3LYP
PRINT_ORBITALS false
MOLDEN_FORMAT false
$end
