$molecule
0 1
 C         4.25771750690000    1.96445650600000   -0.10562027200000
 C         3.76910386990000    0.73674006790000    0.02500084720000
 C         2.36221500830000    0.35429336690000    0.02541843270000
 C         2.04367953750000   -1.00304232160000    0.11389351380000
 C         0.73967409210000   -1.49941525070000    0.10658866840000
 C         0.49729690700000   -2.93536204890000    0.16879704100000
 C        -0.55750413200000   -3.56941937050000   -0.32794377040000
 C        -0.26735160480000   -0.53878926110000    0.04079096550000
 N        -1.64300473930000   -0.59210437250000    0.06608275760000
 C        -2.14277183660000    0.67922513630000    0.01177246290000
 S        -3.71690224130000    1.08829130910000    0.02558320040000
 O        -1.11720271320000    1.54918349440000   -0.06241846070000
 C         0.04321705360000    0.82735500440000   -0.03401585350000
 C         1.33306695370000    1.30061327520000   -0.05261269980000
 H         5.31858576760000    2.14482317170000   -0.09473266360000
 H         3.63490317750000    2.83299887340000   -0.23013821740000
 H         4.45810461320000   -0.09048363070000    0.14024443670000
 H         2.85258812140000   -1.71696045430000    0.17529479530000
 H         1.28795318240000   -3.50623036860000    0.63856556040000
 H        -1.34324260560000   -3.06385841500000   -0.86356817130000
 H        -0.65268693900000   -4.63870166590000   -0.25229254520000
 H        -2.22172358700000   -1.40504818840000    0.19014211780000
 H         1.52666658150000    2.35690257550000   -0.11195428550000
$end

$rem
 BASIS = 6-31G*
 GUI = 2
 METHOD = B3LYP
 PRINT_ORBITALS false
 MOLDEN_FORMAT false
$end