$molecule
0 1
 C        -3.73464932510000   -0.40823761380000   -0.09307969430000
 C        -2.89634818150000    0.61960476780000   -0.03930112860000
 C        -1.44705098110000    0.47465658610000    0.00341713460000
 C        -0.61664609910000    1.59588011310000    0.06384122000000
 C         0.74945793380000    1.40947643090000    0.11956673060000
 C         1.27896672590000    0.11925779430000    0.10445456450000
 C         2.71593516590000   -0.11906528800000    0.16925172040000
 C         3.64305432900000    0.71119870670000   -0.29153150630000
 C         0.36069068020000   -0.94634371380000    0.03210164410000
 C         0.81022956670000   -2.37529319410000   -0.01614072960000
 N        -0.94271903850000   -0.75896698240000   -0.01384153520000
 H        -4.80245712620000   -0.27540076240000   -0.12390908490000
 H        -3.35649029860000   -1.41566949420000   -0.10734982730000
 H        -3.26288886140000    1.63804497870000   -0.02444317490000
 H        -1.04080593000000    2.58887038810000    0.07775163310000
 H         1.41180228620000    2.25980184310000    0.19658554020000
 H         3.01864938430000   -1.05544665800000    0.61871221450000
 H         3.39378107140000    1.63901871400000   -0.77878954430000
 H         4.69237126590000    0.48266160570000   -0.21575740770000
 H         1.30386593900000   -2.65321757240000    0.91446883960000
 H         1.50899068020000   -2.53219317750000   -0.83571464220000
 H        -0.05780467610000   -3.01289681140000   -0.15578771780000
$end

$rem
 BASIS = 6-31G*
 GUI = 2
 METHOD = B3LYP
 PRINT_ORBITALS false
 MOLDEN_FORMAT false
$end