$molecule
0 1
 C         3.85980012230000   -0.58233493340000   -0.18375441610000
 C         3.09212487770000    0.47128158400000    0.06749325230000
 C         1.63455664780000    0.50780266600000    0.04775677490000
 C         0.99171940220000    1.74957034370000    0.09529436580000
 C        -0.38242108770000    1.83270766620000    0.06036850150000
 C        -1.15177530340000    0.67102628820000   -0.01135090280000
 C        -2.55775014240000    0.79519137890000   -0.04250170520000
 N        -3.69752593410000    0.92575621950000   -0.07033667080000
 C        -0.53401607650000   -0.59458305330000   -0.03785990500000
 C        -1.36453155390000   -1.79279970550000   -0.09670584050000
 C        -0.96851015740000   -3.02797292970000    0.18537418170000
 C         0.85462542330000   -0.64461577480000   -0.01413080270000
 H         4.93329436660000   -0.51129985810000   -0.15130421730000
 H         3.46077879190000   -1.54871493600000   -0.44055828810000
 H         3.56158469250000    1.42007864240000    0.29700236840000
 H         1.58161014880000    2.65301382240000    0.14894405760000
 H        -0.87690107890000    2.79291618160000    0.08826043310000
 H        -2.39668435030000   -1.61747915270000   -0.37411311510000
 H         0.03429322500000   -3.26252454580000    0.50048313600000
 H        -1.64969395070000   -3.85875537680000    0.12397721820000
 H         1.33887822540000   -1.60678236520000   -0.04921229830000
$end

$rem
 BASIS = 6-31G*
 GUI = 2
 METHOD = B3LYP
 PRINT_ORBITALS false
 MOLDEN_FORMAT false
$end