$molecule
0 1
 C        -1.25326536480000    0.98760739320000   -2.35296706360000
 C        -1.19441927150000   -0.27901069250000   -1.96794016840000
 C        -1.40210723110000   -0.76657287290000   -0.60245600350000
 C        -2.12301284560000   -1.94749966590000   -0.43367590950000
 C        -2.41930237490000   -2.43569801930000    0.82388414730000
 C        -1.98900263200000   -1.74801721970000    1.94591654010000
 C        -1.25056248290000   -0.58946148390000    1.79683430990000
 C        -0.93719572360000   -0.09298333700000    0.53577383710000
 C        -0.09697497500000    1.11679059530000    0.45122516350000
 C        -0.51693892300000    2.27428340660000    1.10007168750000
 C         0.21899473380000    3.44218119280000    1.02964537500000
 C         1.39376261390000    3.47185577420000    0.29666612600000
 C         1.82950939840000    2.32832684560000   -0.34486335700000
 C         1.10942878980000    1.13956962990000   -0.26057661040000
 C         1.65023624930000   -0.04033368490000   -0.94175234730000
 C         1.75163357260000   -1.25398096720000   -0.43165316310000
 F         1.40835973740000   -1.64560877780000    0.78869060290000
 F         2.26738345700000   -2.29162562040000   -1.09154960510000
 H        -1.12796119210000    1.26777220250000   -3.38521899970000
 H        -1.43884437830000    1.79077227410000   -1.66034072850000
 H        -1.04915326220000   -1.05594592150000   -2.70960590460000
 H        -2.46788258290000   -2.47690966830000   -1.31083022850000
 H        -2.98249639910000   -3.35115654350000    0.92867410580000
 H        -2.21607074360000   -2.12005893130000    2.93368462810000
 H        -0.88127240720000   -0.06866130110000    2.66835464540000
 H        -1.44814995890000    2.25411843840000    1.64793432650000
 H        -0.12777735070000    4.32997200000000    1.53722692760000
 H         1.96873701560000    4.38285309700000    0.22569684350000
 H         2.75171443690000    2.34348247700000   -0.90739740170000
 H         2.04909975120000    0.10012424960000   -1.93547631190000
$end

$rem
 BASIS = 6-31G*
 GUI = 2
 METHOD = B3LYP
 PRINT_ORBITALS false
 MOLDEN_FORMAT false
$end