$molecule
0 1
 C           -4.40617739510000        0.36075912890000       -0.64777860090000
 C           -3.35436480880000        0.74079364660000        0.06233312270000
 C           -2.08548821390000        0.00593491210000        0.11569335240000
 C           -2.10915356270000       -1.38607305840000        0.17284265590000
 C           -0.93712979240000       -2.11049581390000        0.26668393180000
 C            0.27542906560000       -1.45169982360000        0.32127228630000
 C            0.32555491480000       -0.06007195320000        0.26122796980000
 C            1.60776490990000        0.63635444780000        0.36479257330000
 C            2.77531895270000        0.18988738190000       -0.06617936240000
 F            3.01986453990000       -0.94226641120000       -0.71632453020000
 F            3.91904269200000        0.86009640810000        0.08030807640000
 C           -0.85894169730000        0.67890020130000        0.13916871050000
 C           -0.80605932710000        2.17241422500000       -0.01285875330000
 H           -5.32696782250000        0.91885119910000       -0.64141016880000
 H           -4.38164348920000       -0.51254464940000       -1.27835221500000
 H           -3.41018949200000        1.63780187690000        0.66554698470000
 H           -3.06093691400000       -1.89546674430000        0.16447366600000
 H           -0.96761766500000       -3.18858967690000        0.31345950000000
 H            1.18743246970000       -2.01709851450000        0.42801740140000
 H            1.62362221230000        1.60243231040000        0.84578325380000
 H            0.04984890020000        2.46806146900000       -0.61493463710000
 H           -0.72235516970000        2.65473449860000        0.96236695090000
 H           -1.70303546510000        2.54167567430000       -0.50149286790000
$end

$rem
 BASIS = 6-31G*
 GUI = 2
 METHOD = B3LYP
 PRINT_ORBITALS false
 MOLDEN_FORMAT false
$end