$molecule
0 1
 C         4.36009541660000   -1.23717296060000   -0.11912793160000
 C         3.10571402680000   -1.63360379220000    0.05675406080000
 C         1.91135947550000   -0.79500072930000    0.04097847170000
 C         0.66439572360000   -1.40901324210000    0.04754638660000
 C        -0.51301795230000   -0.66010277600000    0.02512635000000
 C        -1.77761123430000   -1.38056929460000    0.02792666140000
 C        -3.00717782050000   -0.88997816270000   -0.00525857160000
 F        -3.38419553960000    0.38094323690000   -0.04896146420000
 F        -4.09552892010000   -1.65999542280000    0.00037512030000
 C        -0.42751129430000    0.72669230150000    0.00396364140000
 C         0.81703520700000    1.35674095890000    0.00549275930000
 O         0.77856322570000    2.71664518380000   -0.00980102890000
 C         1.99164739860000    3.42873654460000   -0.01123563080000
 C         1.97961799370000    0.59947993900000    0.02336896180000
 H         5.17605062520000   -1.93879455550000   -0.09464546790000
 H         4.63105598260000   -0.21128317310000   -0.30110575210000
 H         2.90932623580000   -2.68659361500000    0.21719416680000
 H         0.60588870920000   -2.48750553120000    0.06441187140000
 H        -1.71642981060000   -2.45892698050000    0.05925696500000
 H        -1.30315686780000    1.35234148630000   -0.00993657690000
 H         1.71396897600000    4.48140591920000   -0.02732979510000
 H         2.59149256310000    3.20065160010000   -0.89842957970000
 H         2.57971435990000    3.22483991960000    0.88962583360000
 H         2.94458193210000    1.07737059590000    0.03388876810000
$end

$rem
 BASIS = 6-31G*
 GUI = 2
 METHOD = B3LYP
 PRINT_ORBITALS false
 MOLDEN_FORMAT false
$end