$molecule
0 1
 C        -2.09430361890000   -3.45907786860000    0.06530505830000
 C        -2.14147223400000   -2.31553697440000    0.74429861550000
 C        -1.55085410120000   -1.07379611220000    0.32287373180000
 C        -0.85188115860000   -0.76882829400000   -0.81516233380000
 C        -0.40391883650000    0.56645590380000   -0.88622365970000
 C         0.46413968260000    1.06320146430000   -2.00213825180000
 C         1.70380286590000    0.19209186270000   -2.25363675950000
 C         2.85618943220000    0.45620578200000   -1.28195664270000
 C         2.57919325730000    0.11518990160000    0.18255228750000
 C         2.34738825920000   -1.37205043180000    0.43678187030000
 C         2.07428639370000   -1.64862150650000    1.90987041250000
 C        -0.80198835800000    1.30720680300000    0.20480327250000
 C        -0.61120412980000    2.70052219590000    0.53521333820000
 C        -0.58598381920000    3.71249682980000   -0.32631419360000
 S        -1.67436117910000    0.32330997690000    1.34743659520000
 H        -2.55698367190000   -4.35314926560000    0.44384630760000
 H        -1.59627623780000   -3.54253836870000   -0.88504698300000
 H        -2.65116077020000   -2.27777927880000    1.69847862000000
 H        -0.67346184880000   -1.48719854710000   -1.59541134930000
 H         0.79384459520000    2.07964611190000   -1.78717542790000
 H        -0.13538423070000    1.08824512520000   -2.91771777240000
 H         2.06806404810000    0.41014024540000   -3.26115910970000
 H         1.43507456550000   -0.86336447810000   -2.22961322570000
 H         3.12442131280000    1.51444062120000   -1.34390126920000
 H         3.72250082320000   -0.12091868600000   -1.61734875440000
 H         1.71510008790000    0.68015608260000    0.53198501630000
 H         3.43966688280000    0.43881035880000    0.77463812640000
 H         3.22572029970000   -1.93633173930000    0.11364581030000
 H         1.49275235930000   -1.71912840540000   -0.14498357180000
 H         2.91269961870000   -1.32683810230000    2.52419841530000
 H         1.91194236310000   -2.71106323290000    2.07705201570000
 H         1.18539246860000   -1.11264374920000    2.23611882220000
 H        -0.53321140400000    2.90527651260000    1.59654245570000
 H        -0.73071660630000    3.57648190410000   -1.38379849340000
 H        -0.44338831170000    4.72455659110000    0.01118511890000
$end

$rem
 BASIS = 6-31G*
 GUI = 2
 METHOD = B3LYP
 PRINT_ORBITALS false
 MOLDEN_FORMAT false
$end