$molecule
0 1
 C         3.54993633990000   -2.74147840750000    0.02832014830000
 C         3.40257886170000   -1.42303202280000   -0.00922179480000
 C         2.14501656850000   -0.68257066010000   -0.00794389290000
 C         0.89822136680000   -1.30651949130000   -0.01072003960000
 C        -0.27638422300000   -0.56209032200000   -0.00815504880000
 C        -1.53848196110000   -1.28726722170000   -0.01150857330000
 C        -2.77283503710000   -0.80756333420000    0.00006967760000
 F        -3.16198749690000    0.46345936510000    0.01779971420000
 F        -3.85572612600000   -1.58468732430000   -0.00426108700000
 C        -0.21175138220000    0.83369920970000   -0.00313496400000
 C         1.02302725070000    1.46766100570000   -0.00192017160000
 O         1.19956244420000    2.81572808710000    0.00161804190000
 C         0.06311990120000    3.64704650350000    0.00422059710000
 C         2.19124743370000    0.70679373080000   -0.00503847670000
 H         4.52661947730000   -3.19399109070000    0.02486003760000
 H         2.71805032700000   -3.42349574850000    0.06535796760000
 H         4.28655018710000   -0.79839967840000   -0.04134270270000
 H         0.83556006030000   -2.38273839010000   -0.01686823920000
 H        -1.47129589960000   -2.36568635110000   -0.02403874350000
 H        -1.11927061130000    1.41068562530000   -0.00133880270000
 H         0.44573487030000    4.66637046910000    0.00584715370000
 H        -0.54889777100000    3.48909503510000    0.89775406140000
 H        -0.55049209040000    3.49260416080000   -0.88883288620000
 H         3.13609711960000    1.22792718900000   -0.00396965800000
$end

$rem
 BASIS = 6-31G*
 GUI = 2
 METHOD = B3LYP
 PRINT_ORBITALS false
 MOLDEN_FORMAT false
$end