$molecule
0 1
 C         2.07491348820000   -3.31998683260000    0.26178364590000
 C         2.25200336330000   -2.11584904830000   -0.26477131170000
 C         1.32843581040000   -0.99077606910000   -0.11854519260000
 C        -0.04339859660000   -1.23329293340000   -0.08771835010000
 C        -0.97455371490000   -0.21283302870000    0.00946232300000
 C        -2.47606562910000   -0.45515188740000    0.04208793240000
 C        -2.83626551380000   -1.93752696690000   -0.08736970530000
 C        -3.03543589590000    0.05901564950000    1.37597436280000
 C        -3.13474100170000    0.29861348070000   -1.12169832810000
 C        -0.48801219510000    1.08709145630000    0.08668383550000
 C         0.86872182560000    1.37783936340000    0.06854841320000
 C         1.32175932870000    2.76340921680000    0.20263160000000
 C         0.69686535220000    3.81903622100000   -0.30139002380000
 C         1.80106244660000    0.32945284500000   -0.04305412240000
 N         3.15537356400000    0.60227721430000   -0.00384835700000
 H         2.77752061330000   -4.11940262400000    0.09807532260000
 H         1.23013914700000   -3.54907486350000    0.88897099970000
 H         3.13746862270000   -1.93931571320000   -0.86722417900000
 H        -0.36128077580000   -2.25904839090000   -0.17010585920000
 H        -2.42272802900000   -2.51382032160000    0.73690804790000
 H        -2.47272664480000   -2.34736838370000   -1.02692680730000
 H        -3.91850566420000   -2.05137029940000   -0.06664052990000
 H        -2.56234064940000   -0.46107232550000    2.20636245360000
 H        -4.10878177000000   -0.11347344550000    1.42594833810000
 H        -2.85488592950000    1.12372168900000    1.49554908170000
 H        -2.72311862470000   -0.04116676850000   -2.06992753090000
 H        -2.97013289990000    1.36955580220000   -1.04312979760000
 H        -4.20809226870000    0.11930175710000   -1.12671016020000
 H        -1.17268028850000    1.91453393360000    0.19061753910000
 H         2.23051783590000    2.90881429620000    0.77483725580000
 H        -0.19773061370000    3.72376391150000   -0.89400752920000
 H         1.06274412860000    4.82058783040000   -0.15035344970000
 H         3.43371619160000    1.51459655090000   -0.32466349100000
 H         3.76758291110000   -0.14220068350000   -0.29371924110000
$end

$rem
 BASIS = 6-31G*
 GUI = 2
 METHOD = B3LYP
 PRINT_ORBITALS false
 MOLDEN_FORMAT false
$end