$molecule
0 1
 C        -4.58484733600000    0.40221088410000   -0.00176400880000
 C        -3.68433289520000   -0.57705803120000    0.00040754860000
 C        -2.26098972850000   -0.38714716450000    0.00062866830000
 C        -1.30511700690000   -1.37157987050000    0.00180839620000
 C        -0.00740330200000   -0.84277234860000    0.00117647770000
 S         1.58551764330000   -1.50706153500000    0.00156978300000
 C         2.28989789180000    0.10130643250000   -0.00031890320000
 C         3.72297282500000    0.21673678630000   -0.00063543480000
 C         4.40403447150000    1.36044966850000   -0.00040418010000
 C         1.33175347000000    1.08405510170000   -0.00127080350000
 C         0.03666139120000    0.55060459960000   -0.00043744480000
 S        -1.55577271220000    1.22106754120000   -0.00112415940000
 H        -5.64081681090000    0.19938572230000   -0.00204025000000
 H        -4.28776779210000    1.43807201030000   -0.00345669790000
 H        -3.99959043350000   -1.61285635230000    0.00198696640000
 H        -1.53329997200000   -2.42180049650000    0.00312023900000
 H         4.25425757660000   -0.72629395840000   -0.00121851820000
 H         3.91580739150000    2.31933431520000    0.00024692310000
 H         5.47945320000000    1.36879466920000   -0.00053821510000
 H         1.54948160790000    2.13542350080000   -0.00262626460000
$end

$rem
 BASIS = 6-31G*
 GUI = 2
 METHOD = B3LYP
 PRINT_ORBITALS false
 MOLDEN_FORMAT false
$end