$molecule
0 1
 C         3.71405458270000    0.85573873680000   -1.14937859170000
 N         2.98949337120000    1.21316415470000    0.05448293690000
 C         1.65019232270000    0.84050029740000    0.13800162550000
 C         0.63078266680000    1.75790284510000    0.29680537430000
 C        -0.70117708300000    1.35604946590000    0.33999203730000
 C        -1.06912756480000    0.03251046330000    0.21492209270000
 C        -2.47201965670000   -0.35474239330000    0.25446439640000
 C        -3.50579366220000    0.38483194670000   -0.11708968160000
 F        -3.48853374680000    1.60663157200000   -0.64412983410000
 F        -4.77364409860000   -0.02485553290000   -0.02253346040000
 C         1.31836978940000   -0.55061891760000    0.12259145480000
 C        -0.04434632040000   -0.95524671910000    0.10881881320000
 C        -0.32469376800000   -2.33383675900000   -0.00462966920000
 C         0.67286051390000   -3.26928232580000   -0.01148388840000
 C         2.00804353340000   -2.87293088450000    0.12128247860000
 C         2.31935272130000   -1.54280664650000    0.17836217850000
 C         3.36760390910000    2.51617560260000    0.54765463090000
 H         3.26988740790000   -0.01728368940000   -1.61904087580000
 H         4.75656784430000    0.64101966810000   -0.90381225500000
 H         3.69550708850000    1.68114760430000   -1.87400966110000
 H         0.84685772710000    2.81245599920000    0.35922408130000
 H        -1.45774225680000    2.11490390330000    0.46378115960000
 H        -2.72546432340000   -1.33322070560000    0.63211341470000
 H        -1.34789154060000   -2.66408633600000   -0.09004647840000
 H         0.43150233160000   -4.31873738550000   -0.09631091650000
 H         2.78676235730000   -3.61908064620000    0.17755783200000
 H         3.34550583200000   -1.23678854720000    0.30510790200000
 H         4.44922004250000    2.52205892540000    0.69080402210000
 H         2.89042324060000    2.69582113440000    1.50894491310000
 H         3.11164115620000    3.33208524240000   -0.14245946100000
$end

$rem
 BASIS = 6-31G*
 GUI = 2
 METHOD = B3LYP
 PRINT_ORBITALS false
 MOLDEN_FORMAT false
$end