$molecule
0 1
 C        -1.13792620780000   -3.18947866260000   -0.85791836950000
 C        -1.27713401270000   -2.34796444870000    0.15405077690000
 C        -0.78070570110000   -0.95549399980000    0.12155074790000
 C        -1.59279829200000    0.16453213160000    0.08329622890000
 O        -2.95663120960000    0.22078321010000    0.07452296020000
 C        -3.75620898570000   -0.90106450750000    0.35504498470000
 C        -1.02514437620000    1.45321006560000   -0.00718190270000
 C         0.32618323790000    1.67892245450000   -0.05045583560000
 C         0.92355149920000    3.00196772910000   -0.15285423280000
 C         0.27364368590000    4.15671867950000   -0.24300037250000
 C         1.19110701030000    0.54520874650000    0.01564197840000
 N         2.51862306810000    0.75452206380000   -0.00898586310000
 C         3.32958181850000   -0.26345889100000    0.05929814240000
 C         2.89110349590000   -1.59058324170000    0.17188339760000
 C         1.54404552930000   -1.83236293340000    0.19505831420000
 C         0.63069457420000   -0.75889651350000    0.10301714450000
 H        -1.48184518930000   -4.20885783330000   -0.80244527040000
 H        -0.68456689380000   -2.88376816300000   -1.78681424070000
 H        -1.72999229310000   -2.68398873290000    1.07934594820000
 H        -4.78325314690000   -0.55193959740000    0.24680972330000
 H        -3.60805016940000   -1.25178645440000    1.38031955040000
 H        -3.57749342910000   -1.72027484710000   -0.34519396580000
 H        -1.72637462090000    2.27127421680000   -0.04926674460000
 H         2.00429345190000    2.98599110240000   -0.15246268000000
 H        -0.80105272960000    4.22621456980000   -0.25080785140000
 H         0.80526849070000    5.09009228500000   -0.31471247200000
 H         4.38651651560000   -0.02941851320000    0.03186615590000
 H         3.60545320330000   -2.39645157590000    0.24324159590000
 H         1.17167862800000   -2.84214172600000    0.28847610870000
$end

$rem
 BASIS = 6-31G*
 GUI = 2
 METHOD = B3LYP
 PRINT_ORBITALS false
 MOLDEN_FORMAT false
$end