$molecule
0 1
 C        -5.90323953220000    0.54697579350000    0.03486527200000
 C        -4.87377312670000   -0.29146349150000   -0.00746260310000
 C        -3.45918890720000    0.05702396970000   -0.00629711640000
 C        -3.00251542300000    1.37653501600000   -0.00372817750000
 C        -1.65028966640000    1.68853735370000   -0.00171326310000
 C        -0.72935300850000    0.65923752000000   -0.00235796600000
 C        -1.17507574010000   -0.67640212460000   -0.00618947310000
 C        -2.51573880990000   -0.98238662710000   -0.00901059390000
 C        -0.00004542480000   -1.58870114010000   -0.00717157940000
 O        -0.00008439500000   -2.79758458430000   -0.01003850400000
 C         1.17503024810000   -0.67649568450000   -0.00347448650000
 C         2.51570598610000   -0.98247239320000   -0.00264238600000
 C         3.45918721400000    0.05692026960000    0.00131195030000
 C         4.87372928000000   -0.29167227580000    0.00252836280000
 C         5.90356556810000    0.54731114570000    0.01183769430000
 C         3.00247984860000    1.37643110420000    0.00391204120000
 C         1.65026415800000    1.68841408650000    0.00293476340000
 C         0.72932200830000    0.65912996670000   -0.00067380910000
 H        -6.91687084150000    0.18495891750000    0.03093720300000
 H        -5.78796083920000    1.61647952680000    0.07661578880000
 H        -5.06984265530000   -1.35611504480000   -0.04367782620000
 H        -3.71892112460000    2.18345015510000   -0.00534799960000
 H        -1.33126623240000    2.72028769720000   -0.00020142210000
 H        -2.83503775870000   -2.01452119940000   -0.01221458650000
 H         2.83499816780000   -2.01461061110000   -0.00484992290000
 H         5.06952309050000   -1.35694509050000   -0.00451586750000
 H         5.78881228000000    1.61760424210000    0.01989769770000
 H         6.91708898190000    0.18496196440000    0.01194695340000
 H         3.71882664000000    2.18338012040000    0.00644398110000
 H         1.33121928560000    2.72015235400000    0.00484805960000
$end

$rem
 BASIS = 6-31G*
 GUI = 2
 METHOD = B3LYP
 PRINT_ORBITALS false
 MOLDEN_FORMAT false
$end