$molecule
0 1
 C        -1.80676232860000   -2.94132099760000   -0.94862408460000
 C        -1.15598841040000   -2.39936993850000    0.06869736000000
 C        -0.70240657470000   -0.99722447690000    0.08718323010000
 C        -1.54808049830000    0.09729648300000    0.03981021990000
 O        -2.91178676990000    0.09651290710000    0.09630870810000
 C        -3.62467102720000   -0.98032400950000    0.65344291900000
 C        -1.01856228820000    1.40175526240000   -0.05625710210000
 C         0.32688283240000    1.66584108940000   -0.06765757260000
 C         0.88699077570000    3.00546939190000   -0.16450085000000
 C         0.21201938320000    4.12635938470000   -0.39222360730000
 C         1.22445253740000    0.56001550900000    0.04065200440000
 N         2.54521398220000    0.80738017810000    0.06234214770000
 C         3.38205863900000   -0.19014899850000    0.12955487860000
 C         2.98078646640000   -1.53322205650000    0.16450160510000
 C         1.64069619230000   -1.81344009500000    0.14645848110000
 C         0.70147573700000   -0.76011578750000    0.10342574680000
 H        -2.10457092630000   -3.97656046690000   -0.94892966680000
 H        -2.05871207650000   -2.36712717430000   -1.82560908140000
 H        -0.88302208560000   -3.00452372840000    0.92634440720000
 H        -4.56621807150000   -0.55655644260000    1.00634171480000
 H        -3.09009961130000   -1.42728922940000    1.49498053310000
 H        -3.83408809980000   -1.75660394020000   -0.08844022370000
 H        -1.74095281000000    2.20089313190000   -0.10625580130000
 H         1.96096478250000    3.03253518790000   -0.04593510780000
 H        -0.85533311470000    4.14887143620000   -0.53407238330000
 H         0.71432090270000    5.07670350130000   -0.45091936350000
 H         4.43201779350000    0.07418324730000    0.14929611460000
 H         3.71756060990000   -2.32107440560000    0.20011416040000
 H         1.29712717500000   -2.83749710450000    0.15810093100000
$end

$rem
 BASIS = 6-31G*
 GUI = 2
 METHOD = B3LYP
 PRINT_ORBITALS false
 MOLDEN_FORMAT false
$end