$molecule
0 1
 C         2.17725526800000    2.59125057040000    0.00381591380000
 N         2.34145399840000    1.16684274210000    0.00147716490000
 C         3.50479389940000    0.46123271140000   -0.00140387960000
 N         3.34820760460000   -0.82710503780000   -0.00329356570000
 C         1.33696040880000    0.23116268920000    0.00127265330000
 C         1.99340005540000   -1.02462534350000   -0.00166877680000
 C         1.23984522190000   -2.19446161780000   -0.00222636270000
 C        -0.12974236770000   -2.07434390820000    0.00010474570000
 C        -0.78437018170000   -0.82529747990000    0.00265625560000
 C        -2.23799382720000   -0.83436329190000    0.00462261770000
 C        -3.07200581260000    0.19498443480000   -0.00035565780000
 F        -2.77521944580000    1.49232186170000   -0.00832455400000
 F        -4.39860275490000    0.06071691100000    0.00197175380000
 C        -0.04044259510000    0.35108355760000    0.00343495060000
 H         3.15681177540000    3.06617110440000    0.00391474460000
 H         1.62597187450000    2.90921925720000    0.89184324270000
 H         1.62474933320000    2.91205005810000   -0.88243769700000
 H         4.46211545680000    0.94745776350000   -0.00197042000000
 H         1.72385517460000   -3.15736648780000   -0.00435176360000
 H        -0.73633968560000   -2.96790298490000   -0.00028196010000
 H        -2.71366182090000   -1.80441231870000    0.01018368940000
 H        -0.51021012280000    1.32033511980000    0.00591247120000
$end

$rem
 BASIS = 6-31G*
 GUI = 2
 METHOD = B3LYP
 PRINT_ORBITALS false
 MOLDEN_FORMAT false
$end