$molecule
0 1
 C        -1.96327387720000   -2.54051693910000    0.41948027430000
 C        -2.36092035950000   -1.43770292410000   -0.20257794640000
 C        -1.70011487840000   -0.14404229760000   -0.14999426950000
 C        -2.43579055630000    1.06919738020000   -0.13276648350000
 C        -1.65101695250000    2.17006883900000   -0.03784174780000
 S         0.01967178140000    1.78095364840000    0.01118548280000
 C        -0.33664341910000    0.08126948370000   -0.09182338440000
 C         0.70165116230000   -0.90186236580000   -0.20555366520000
 C         1.99808031860000   -0.70107115110000   -0.00025318610000
 F         2.57666360980000    0.43097495910000    0.38451788350000
 F         2.92268940630000   -1.64754054500000   -0.14711498430000
 H        -2.52067624990000   -3.45816070210000    0.34140348650000
 H        -1.09280999940000   -2.56272371800000    1.05273839470000
 H        -3.28240189460000   -1.44691273660000   -0.77186102030000
 H        -3.51006398640000    1.10311971760000   -0.17079735200000
 H        -1.95209083850000    3.19787630220000    0.00644680070000
 H         0.40446166660000   -1.89541077060000   -0.50605242620000
$end

$rem
 BASIS = 6-31G*
 GUI = 2
 METHOD = B3LYP
 PRINT_ORBITALS false
 MOLDEN_FORMAT false
$end