$molecule
0 1
 C        -4.16265117820000    0.05066399920000    0.10991777990000
 C        -3.12019054020000   -0.75331699160000   -0.05784108680000
 C        -1.71317730130000   -0.37074378980000   -0.03932612060000
 C        -0.72768276970000   -1.38841767640000   -0.02819286130000
 C         0.62229414620000   -1.12147561300000   -0.00443464850000
 C         1.58456690900000   -2.20999645600000    0.01136554130000
 C         2.90451539330000   -2.06417833410000    0.03318538610000
 C         1.01547708010000    0.24050810440000    0.00158893730000
 N         2.21184859770000    0.79861531450000    0.01839454640000
 C         2.00497980220000    2.12967514360000    0.01043030560000
 C         0.66510759590000    2.42169008940000   -0.01284493930000
 N         0.02190773760000    1.22202491510000   -0.01756322330000
 C        -1.29803797780000    0.93652406860000   -0.03717561610000
 H        -5.16931280700000   -0.32867893560000    0.08229279080000
 H        -4.06339977820000    1.10778106970000    0.28672623090000
 H        -3.29229956340000   -1.81085256910000   -0.21339587810000
 H        -1.05732814020000   -2.41743135670000   -0.03396970350000
 H         1.14200097030000   -3.19921872590000    0.00448838190000
 H         3.35036863620000   -1.08516226200000    0.04018121370000
 H         3.56098909650000   -2.91797511520000    0.04457029680000
 H         2.83274920700000    2.81138821000000    0.02141046650000
 H         0.14140819700000    3.35521380590000   -0.02488202640000
 H        -1.97488708770000    1.77606367640000   -0.06015480500000
$end

$rem
 BASIS = 6-31G*
 GUI = 2
 METHOD = B3LYP
 PRINT_ORBITALS false
 MOLDEN_FORMAT false
$end