$molecule
0 1
 C         4.33622059940000   -0.55112373400000    0.00018625100000
 C         3.10145256350000   -1.03583054360000   -0.00029567780000
 C         1.91704676080000   -0.20213099880000   -0.00013197710000
 C         0.56672002360000   -0.64374639740000   -0.00025267720000
 C        -0.16216470520000    0.51905220320000   -0.00010530540000
 C        -1.57119615330000    0.81207505620000   -0.00026501870000
 C        -2.53074223810000   -0.10360205610000    0.00000532080000
 F        -2.35743011880000   -1.41678277230000    0.00057094990000
 F        -3.82441106560000    0.17682547940000   -0.00021222890000
 O         0.68973695840000    1.56499100040000    0.00016013670000
 N         1.95637643990000    1.11359776020000    0.00015032620000
 H         5.19791189160000   -1.19583783850000    0.00005715220000
 H         4.50769173700000    0.51122134930000    0.00071058850000
 H         2.91103685730000   -2.10048057080000   -0.00087176340000
 H         0.20610746790000   -1.65000599010000   -0.00042734160000
 H        -1.85235082280000    1.85289637470000   -0.00062383570000
$end

$rem
 BASIS = 6-31G*
 GUI = 2
 METHOD = B3LYP
 PRINT_ORBITALS false
 MOLDEN_FORMAT false
$end