$molecule
0 1
 C        -3.75370719250000    1.11814233680000    0.03401214360000
 C        -3.11874635710000   -0.04638422830000   -0.02827416930000
 C        -1.67631757110000   -0.24195612320000   -0.02242688480000
 C        -1.16090981800000   -1.54604919050000    0.02579296130000
 N         0.11987858590000   -1.82803393250000    0.03034925410000
 C         0.99420763430000   -0.82570539640000   -0.01161190110000
 C         2.36648558100000   -1.18962656260000    0.00019044420000
 N         3.47845722570000   -1.46809930670000    0.00658281750000
 C         0.61621650350000    0.53233671500000   -0.06094262620000
 C         1.63407644550000    1.57450703840000   -0.10759807080000
 C         1.43596297010000    2.85458544790000    0.18292663330000
 C        -0.75055467860000    0.79759676130000   -0.07301946600000
 H        -4.82866306390000    1.16817873980000    0.02919674800000
 H        -3.23981637670000    2.06227498270000    0.09703961740000
 H        -3.69427567290000   -0.96232971030000   -0.07795272500000
 H        -1.82402395820000   -2.40114782670000    0.05841093890000
 H         2.62541907300000    1.23335551730000   -0.37751919360000
 H         0.47947703210000    3.24153568220000    0.49237811770000
 H         2.24068181100000    3.56721409690000    0.13628105940000
 H        -1.08891717550000    1.81934985790000   -0.14473282260000
$end

$rem
 BASIS = 6-31G*
 GUI = 2
 METHOD = B3LYP
 PRINT_ORBITALS false
 MOLDEN_FORMAT false
$end