$molecule
0 1
 C        -2.89723038950000   -1.52846273280000    0.71669696420000
 C        -2.59669747970000   -0.36772621130000    0.14894309420000
 C        -1.27028196330000    0.22977188350000    0.02702905630000
 C        -1.19179661030000    1.61464162960000   -0.10023529300000
 C         0.01654725390000    2.27678949240000   -0.24247250300000
 C         0.06884744970000    3.76837561320000   -0.38392568110000
 C         1.17733347020000    1.52322483130000   -0.21870903270000
 C         1.15373273120000    0.13830836140000   -0.06615219040000
 C         2.44664338590000   -0.53564098320000    0.08826669210000
 C         2.69711930360000   -1.47510545110000    0.98932501010000
 C        -0.08073092350000   -0.52309791980000    0.00605687060000
 O        -0.19684270210000   -1.88978895800000    0.01886387250000
 C         0.57410599050000   -2.63916630550000   -0.89493893010000
 H        -3.91665291990000   -1.87483807190000    0.76635054710000
 H        -2.14802288080000   -2.16423631180000    1.15111528210000
 H        -3.39620600060000    0.25021159400000   -0.24414883640000
 H        -2.10999316260000    2.18549042510000   -0.09708566740000
 H        -0.83960526030000    4.14528691280000   -0.84774575350000
 H         0.92415345650000    4.07087609670000   -0.98375137250000
 H         0.16468159260000    4.23291172280000    0.59801651830000
 H         2.13652942880000    2.01662259140000   -0.29430243260000
 H         3.24883696650000   -0.15280383540000   -0.53175102970000
 H         1.93141288980000   -1.83860737470000    1.65471010750000
 H         3.67917050480000   -1.90213686020000    1.10559148180000
 H        -0.08869493400000   -3.40068813580000   -1.31229032370000
 H         1.41373078940000   -3.12946019710000   -0.39310932460000
 H         0.96234718780000   -2.01671970810000   -1.70384252630000
$end

$rem
 BASIS = 6-31G*
 GUI = 2
 METHOD = B3LYP
 PRINT_ORBITALS false
 MOLDEN_FORMAT false
$end