$molecule
0 1
 C         3.52284993680000   -0.19716401730000   -0.51097762450000
 C         2.42636339300000   -0.56378968310000    0.13809900850000
 C         1.15216009230000    0.15435182900000    0.09843954890000
 C         1.14966285520000    1.54444182930000    0.04639739030000
 C        -0.03215386230000    2.25943184060000    0.06801718790000
 C        -1.23351724210000    1.58068363670000    0.12793079340000
 C        -1.27976137340000    0.18975087970000    0.13709588590000
 C        -2.59939135510000   -0.44337764890000    0.15645715320000
 C        -2.96638722480000   -1.53095135060000   -0.51078559410000
 C        -0.07426549920000   -0.53940157430000    0.14131988950000
 N        -0.09666496120000   -1.91764945380000    0.13415473480000
 H         4.44421301620000   -0.74757011760000   -0.42386292140000
 H         3.53721232580000    0.65735979450000   -1.16602484430000
 H         2.46559204340000   -1.44917671730000    0.76463771930000
 H         2.09469649200000    2.06601339240000    0.02556082810000
 H        -0.01662458780000    3.33866735030000    0.04829538150000
 H        -2.16376318460000    2.13079131380000    0.14744603850000
 H        -3.34079553560000    0.08669014730000    0.74448233210000
 H        -2.29712561730000   -2.05638335600000   -1.17077024130000
 H        -3.97475151620000   -1.90695616000000   -0.45539392760000
 H        -0.94095390600000   -2.33642186470000    0.49379165560000
 H         0.75437935610000   -2.37728109120000    0.41459745690000
$end

$rem
 BASIS = 6-31G*
 GUI = 2
 METHOD = B3LYP
 PRINT_ORBITALS false
 MOLDEN_FORMAT false
$end