$molecule
0 1
 C         2.66744610410000   -2.82599672990000    0.02498594020000
 C         2.82587986020000   -1.50868505150000   -0.00674169860000
 C         1.76939164020000   -0.50160021580000   -0.00488969180000
 C         0.41441937070000   -0.83376181770000   -0.00278990810000
 C        -0.55831556950000    0.15799178270000    0.00003488910000
 C        -1.98562374770000   -0.12859797310000    0.00225808430000
 C        -2.59438062930000   -1.30489189120000    0.00012241880000
 F        -2.04797958780000   -2.51484290060000   -0.00447354530000
 F        -3.92127693250000   -1.43458033700000    0.00257865960000
 C        -0.17629445320000    1.50385089970000    0.00072846410000
 C         1.16727938370000    1.84750829490000   -0.00266481320000
 O         1.64548522940000    3.12169878130000   -0.00331956000000
 C         0.72734161710000    4.18755336430000   -0.00083442870000
 C         2.13113397400000    0.84060419230000   -0.00602322920000
 H         3.51539182070000   -3.48923624080000    0.02167647330000
 H         1.70150981250000   -3.29960169850000    0.05633380920000
 H         3.82901103580000   -1.10153480230000   -0.03453668670000
 H         0.12610499990000   -1.86954561650000   -0.00499579410000
 H        -2.64973780460000    0.72402037150000    0.00604074440000
 H        -0.94365949540000    2.26166015650000    0.00327879540000
 H         1.32963298720000    5.09456437460000   -0.00304665430000
 H         0.09819101820000    4.17481766210000    0.89514934440000
 H         0.09257610390000    4.17419987490000   -0.89282648600000
 H         3.16980087200000    1.13296068710000   -0.00854551990000
$end

$rem
 BASIS = 6-31G*
 GUI = 2
 METHOD = B3LYP
 PRINT_ORBITALS false
 MOLDEN_FORMAT false
$end