$molecule
0 1
 C        -4.35354490820000   -1.35942812850000    0.05571970350000
 C        -3.03366611180000   -1.48186249740000   -0.02475743070000
 C        -2.05957733930000   -0.39764095880000   -0.01856529180000
 C        -2.42481438370000    0.95210141520000   -0.02008190550000
 C        -1.46227952550000    1.93698050310000   -0.01306696020000
 C        -0.10821665330000    1.60138999370000   -0.00422356700000
 C         0.84402533740000    2.64381079370000    0.00268753080000
 N         1.60083039240000    3.50598265630000    0.00811462940000
 C         0.28995646220000    0.24923641560000   -0.00449929870000
 C         1.71278719120000   -0.05084760600000    0.00365305820000
 C         2.29984957520000   -1.23944120790000    0.00506457160000
 F         1.72412992310000   -2.43505427650000   -0.00124004790000
 F         3.61767449230000   -1.39764821660000    0.01327637730000
 C        -0.70323711060000   -0.72406884910000   -0.01352904890000
 H        -4.99390933410000   -2.22432837520000    0.04592751390000
 H        -4.85117073800000   -0.40842368240000    0.13820348990000
 H        -2.60172086220000   -2.47223947510000   -0.09593724620000
 H        -3.46570220690000    1.23236484970000   -0.03135227130000
 H        -1.74431065020000    2.97973142420000   -0.01520800970000
 H         2.38514960270000    0.79607022720000    0.00973405250000
 H        -0.42879476180000   -1.76667654180000   -0.01445804150000
$end

$rem
 BASIS = 6-31G*
 GUI = 2
 METHOD = B3LYP
 PRINT_ORBITALS false
 MOLDEN_FORMAT false
$end