$molecule
0 1
 C        -2.93363096180000    0.75531201510000    0.22669569280000
 C        -2.33753367830000   -0.38059392990000   -0.11298630180000
 C        -0.91211031270000   -0.62650746020000   -0.07210240800000
 N        -0.46239188720000   -1.86794584740000    0.03432958770000
 N         0.87419714170000   -1.77572181220000    0.07385216730000
 C         1.30509035640000   -0.49556960560000    0.00541428980000
 N         2.64118115310000   -0.16346038200000    0.05933768850000
 C         0.16952265230000    0.30263758570000   -0.09982995120000
 C         0.11908217350000    1.73330802210000   -0.29818765790000
 C         1.00747985470000    2.60271274580000    0.17177504680000
 H        -4.00415948600000    0.86185053830000    0.17809252740000
 H        -2.38306759770000    1.60857736940000    0.58389014760000
 H        -2.92156086790000   -1.23975033340000   -0.41501476360000
 H         1.43078086840000   -2.60722508650000    0.18870255830000
 H         3.26960297070000   -0.87939707510000   -0.27719078740000
 H         2.83532951930000    0.74794766490000   -0.33142423900000
 H        -0.71347617600000    2.08349923960000   -0.89604724830000
 H         1.81745933500000    2.30396970880000    0.81609088920000
 H         0.92937258620000    3.65580287260000   -0.03934800010000
$end

$rem
 BASIS = 6-31G*
 GUI = 2
 METHOD = B3LYP
 PRINT_ORBITALS false
 MOLDEN_FORMAT false
$end