$molecule
0 1
 C        -3.00558476450000   -3.05967765650000    0.12184882430000
 C        -1.87770186760000   -2.51036689760000    0.56395266510000
 C        -1.50983980200000   -1.13229669220000    0.39530070220000
 C        -0.36348426680000   -0.52346509130000    0.83616839400000
 C        -0.25860449870000    0.84420123070000    0.51513095100000
 C         0.94762869330000    1.64151630160000    0.90035787070000
 C         1.97074940440000    1.71411064700000   -0.24366265200000
 C         2.52139895620000    0.34858828090000   -0.65585267150000
 C         3.45924726180000   -0.26505382940000    0.38193763870000
 C         3.99693857630000   -1.63313459980000   -0.04080545530000
 C         2.94393996380000   -2.73373489580000    0.02681331010000
 C        -1.35575314090000    1.29931805510000   -0.18720844890000
 C        -1.73712729270000    2.58603769200000   -0.70850609960000
 C        -1.01570543990000    3.70176019640000   -0.79528093080000
 S        -2.51168948730000    0.01324048840000   -0.43551404910000
 H        -3.22781362110000   -4.10035995390000    0.27728113370000
 H        -3.74045825780000   -2.47837349310000   -0.41044911570000
 H        -1.14841794060000   -3.10833935900000    1.09660623760000
 H         0.39298556040000   -1.05363675090000    1.38875230190000
 H         1.41172031720000    1.17592133840000    1.77125792570000
 H         0.64983582470000    2.65156227380000    1.18663949260000
 H         2.79680419910000    2.36095589720000    0.06233281600000
 H         1.49119627450000    2.16771036120000   -1.11373583350000
 H         3.07178285170000    0.46504007210000   -1.59299955940000
 H         1.68479088500000   -0.32428840180000   -0.84807350620000
 H         2.94401286030000   -0.37246866930000    1.33805649190000
 H         4.30097479590000    0.41513075840000    0.53685623520000
 H         4.82747600930000   -1.90323199370000    0.61614949270000
 H         4.38937139290000   -1.56745048320000   -1.05812283640000
 H         2.55587698630000   -2.82630310210000    1.03946786700000
 H         3.37738710630000   -3.68958548720000   -0.25888323510000
 H         2.11316033980000   -2.52563950730000   -0.64266513190000
 H        -2.75574489600000    2.60690179870000   -1.07928500130000
 H         0.00747764850000    3.77778400240000   -0.47934239660000
 H        -1.44992260190000    4.59697233600000   -1.20672689650000
$end

$rem
 BASIS = 6-31G*
 GUI = 2
 METHOD = B3LYP
 PRINT_ORBITALS false
 MOLDEN_FORMAT false
$end