$molecule
0 1
 C        -2.62138041270000    3.25718536760000   -0.11000171470000
 C        -2.84155838030000    1.95013467400000   -0.23333847500000
 C        -1.86767522670000    0.91539661530000   -0.01300083230000
 C        -0.54721594060000    1.01277521740000    0.34746156600000
 C         0.11380113130000   -0.22217051640000    0.47100429250000
 C         1.56440945520000   -0.42186268380000    0.82833033350000
 C         2.35017001850000   -1.03915165240000   -0.34300324540000
 C         2.62064705880000   -0.02053506330000   -1.44321932440000
 C         3.44681290880000    1.13355644080000   -0.88924326170000
 C         2.66812975850000    1.82525863840000    0.22268535130000
 C         2.28406006950000    0.83929979670000    1.32623300640000
 C        -0.73322729320000   -1.28827547430000    0.22379692720000
 C        -0.45441343920000   -2.69530676720000    0.32754157470000
 C        -1.26134526020000   -3.66393495620000   -0.09865204710000
 S        -2.32833687980000   -0.74577132260000   -0.20428715110000
 H        -3.40256516740000    3.97434231200000   -0.28955086160000
 H        -1.66240509560000    3.65481142970000    0.17371198480000
 H        -3.82369982250000    1.59668006270000   -0.52011402810000
 H        -0.08619417840000    1.96282887540000    0.53686896220000
 H         1.58335145990000   -1.14611340570000    1.65482072630000
 H         1.79875922300000   -1.88545232310000   -0.75504075260000
 H         3.30531747270000   -1.41161159320000    0.03659330700000
 H         1.67261896730000    0.35933396900000   -1.83105009910000
 H         3.15157168920000   -0.50428715230000   -2.26589437820000
 H         3.67789449660000    1.84934614180000   -1.68087111670000
 H         4.39181564200000    0.74900205180000   -0.49771475460000
 H         1.78037068100000    2.28055880200000   -0.21635926410000
 H         3.26870472000000    2.62702652820000    0.65960119240000
 H         1.66723223340000    1.33967985050000    2.07611219120000
 H         3.20292709220000    0.51643432300000    1.82358764740000
 H         0.48125554450000   -2.95067728070000    0.80765599250000
 H        -2.19744555910000   -3.44408197890000   -0.58493379780000
 H        -1.01015069490000   -4.70266841640000    0.02282381490000
$end

$rem
 BASIS = 6-31G*
 GUI = 2
 METHOD = B3LYP
 PRINT_ORBITALS false
 MOLDEN_FORMAT false
$end