$molecule
0 1
 C        -4.05016947230000   -0.01345987490000    0.00533122050000
 C        -3.03845242800000   -0.87189197660000   -0.00028437060000
 C        -1.63486608230000   -0.47535759700000   -0.00172567220000
 C        -0.62076755970000   -1.46289696850000   -0.00367699640000
 C         0.71516344540000   -1.11867154250000   -0.00260986780000
 C         1.75216354650000   -2.13365244190000   -0.00245449260000
 C         3.05558844490000   -1.87622501600000    0.00715490960000
 C         0.99702876850000    0.26831456160000   -0.00106850840000
 N         2.13129204540000    0.94515560400000   -0.00045879230000
 C         1.78716492090000    2.24594170650000   -0.00008334310000
 C         0.42101014350000    2.40165196820000   -0.00020818790000
 N        -0.08720917770000    1.14690829480000   -0.00077289780000
 N        -1.36168500700000    0.80994920850000   -0.00052315390000
 H        -5.07466882240000   -0.34296098510000    0.00700664600000
 H        -3.86874475310000    1.04724032390000    0.00758568540000
 H        -3.21447797340000   -1.93931392150000   -0.00289957600000
 H        -0.90692127620000   -2.50397107850000   -0.00539121340000
 H         1.38748363230000   -3.15378775820000   -0.00979505600000
 H         3.41521909600000   -0.86170397820000    0.01433920500000
 H         3.78325100230000   -2.67009851530000    0.00844335770000
 H         2.54116522820000    3.00843488800000    0.00033558200000
 H        -0.20312302620000    3.26965631580000    0.00029714680000
$end

$rem
 BASIS = 6-31G*
 GUI = 2
 METHOD = B3LYP
 PRINT_ORBITALS false
 MOLDEN_FORMAT false
$end