$molecule
0 1
 C         4.12677050600000   -0.62107599950000   -0.00062860060000
 C         3.02136348660000    0.11741694920000   -0.00103844080000
 C         1.66025355860000   -0.38153511030000   -0.00010429820000
 C         1.28560589200000   -1.71527928220000    0.00066232820000
 N         0.03479838440000   -2.16985525770000    0.00103229520000
 C        -1.00340631610000   -1.35753008770000    0.00061206900000
 C        -2.31127034550000   -1.98079294150000    0.00029238140000
 C        -3.47141145170000   -1.33089174610000   -0.00214486400000
 C        -0.77919665120000    0.04873062330000    0.00035726610000
 N        -1.65918131330000    1.04975846710000    0.00054051510000
 S        -0.86082142370000    2.44428576340000    0.00028714630000
 N         0.63438445130000    1.86274197780000   -0.00006330740000
 C         0.57602099990000    0.53014086010000    0.00001556310000
 H         5.10089768590000   -0.16363586910000   -0.00147502810000
 H         4.10743027640000   -1.69744802980000    0.00053435300000
 H         3.09027778660000    1.19740266850000   -0.00198780690000
 H         2.03438025310000   -2.49509764290000    0.00086152430000
 H        -2.27087940660000   -3.06154042270000    0.00177802050000
 H        -3.51256085660000   -0.25526788170000   -0.00381367070000
 H        -4.40862069470000   -1.86096418780000   -0.00245377050000
$end

$rem
 BASIS = 6-31G*
 GUI = 2
 METHOD = B3LYP
 PRINT_ORBITALS false
 MOLDEN_FORMAT false
$end