$molecule
0 1
 C        -3.85197492780000    1.00659151120000    0.07820230410000
 C        -3.00199488440000   -0.01347751790000    0.05807794500000
 C        -1.54828856300000    0.06218552290000    0.00629724800000
 C        -0.84527872990000    1.26902630630000   -0.03841424690000
 C         0.53014272920000    1.26848049840000   -0.09256961230000
 C         1.27312147000000    0.08792499250000   -0.10222998980000
 C         2.72826901580000    0.12916062860000   -0.19079091790000
 C         3.49927002800000    1.09541890990000    0.29283593270000
 C         0.57464099500000   -1.13490464970000   -0.05396339180000
 N         1.23349346890000   -2.34286378700000    0.04403594110000
 C        -0.81690299610000   -1.12046555320000   -0.00533753410000
 H        -4.91618004510000    0.84792360300000    0.11885243200000
 H        -3.53066242520000    2.03358181460000    0.05631799430000
 H        -3.39817075080000   -1.02210995980000    0.08372880360000
 H        -1.37586086200000    2.20759200280000   -0.03989426090000
 H         1.05750778370000    2.20882169590000   -0.15405926110000
 H         3.20276944780000   -0.70064923960000   -0.70396745110000
 H         3.09490850180000    1.93097240700000    0.83816879610000
 H         4.56924269430000    1.07711717730000    0.17433931450000
 H         2.19029920150000   -2.37515117240000   -0.26542332720000
 H         0.69060413750000   -3.16085044700000   -0.17992609040000
 H        -1.33956598760000   -2.06763376510000    0.03062459000000
$end

$rem
 BASIS = 6-31G*
 GUI = 2
 METHOD = B3LYP
 PRINT_ORBITALS false
 MOLDEN_FORMAT false
$end