$molecule
0 1
 C         3.58908485850000    0.19139112420000    0.07330765460000
 C         2.34364341070000    0.55601654510000   -0.20583115800000
 C         1.16738373360000   -0.30155819450000   -0.09710496720000
 C         1.26378446590000   -1.69050446810000   -0.10587327890000
 C         0.13516694350000   -2.47898983020000    0.02094192240000
 C        -1.11352189400000   -1.89808287590000    0.14254876200000
 C        -1.26549193230000   -0.51359237840000    0.11716701380000
 C        -2.61404859320000    0.04323091920000    0.20040182170000
 C        -3.03925527260000    1.14341851210000   -0.40507524330000
 C        -0.11161183190000    0.28132307730000    0.01082380640000
 C        -0.19718680720000    1.68974317490000    0.09069044090000
 N        -0.21418986620000    2.83408159270000    0.18155793410000
 H         4.40772784100000    0.88260744050000   -0.02702782630000
 H         3.84284826860000   -0.79423405330000    0.42576849090000
 H         2.14681979520000    1.57362857100000   -0.51801275880000
 H         2.23057900510000   -2.15476625190000   -0.22043266550000
 H         0.22908165990000   -3.55495172980000    0.02269578810000
 H        -1.99190195040000   -2.51968888220000    0.23767886750000
 H        -3.31211459310000   -0.55677795890000    0.77206215220000
 H        -2.39914437640000    1.74929150670000   -1.02270065690000
 H        -4.05955017060000    1.47358739270000   -0.31022463620000
$end

$rem
 BASIS = 6-31G*
 GUI = 2
 METHOD = B3LYP
 PRINT_ORBITALS false
 MOLDEN_FORMAT false
$end