$molecule
0 1
 C         3.64322447610000   -0.35333429050000   -0.19957830700000
 C         2.47201180070000   -0.74958255910000    0.28006072790000
 C         1.21614801100000   -0.01017821710000    0.18104346580000
 C         1.18610105710000    1.37158207800000    0.03343654800000
 C        -0.01898870010000    2.06373224650000   -0.04462148320000
 N        -0.03055326390000    3.43007717360000   -0.25640523380000
 C        -1.21201059970000    1.35084970220000    0.03100925480000
 C        -1.21888825020000   -0.03143017080000    0.17787624430000
 C        -2.46150353780000   -0.79314855820000    0.27238843640000
 C        -3.64182959690000   -0.41200256320000   -0.19723290240000
 C         0.00456719630000   -0.70910556180000    0.26498917670000
 O         0.01627715150000   -2.08867359580000    0.42932899000000
 C         0.04023453820000   -2.80126902810000   -0.78713468190000
 H         4.52851414200000   -0.95647858060000   -0.09072161330000
 H         3.76600015070000    0.57693395930000   -0.72873853550000
 H         2.38913064370000   -1.70902454090000    0.77441968240000
 H         2.11338310000000    1.92384254390000    0.00134129730000
 H         0.81085317310000    3.92315583380000   -0.00427406280000
 H        -0.88089352110000    3.90857392760000   -0.00616219550000
 H        -2.14838161660000    1.88735311530000   -0.00334260540000
 H        -2.35980528820000   -1.75701151620000    0.75438168940000
 H        -3.78441125220000    0.52245587470000   -0.71386550190000
 H        -4.51550370400000   -1.03246610010000   -0.09196209450000
 H        -0.84665382860000   -2.58240536480000   -1.39357028430000
 H         0.04936060060000   -3.85802517050000   -0.52398857280000
 H         0.93657713740000   -2.56144093540000   -1.37126242500000
$end

$rem
 BASIS = 6-31G*
 GUI = 2
 METHOD = B3LYP
 PRINT_ORBITALS false
 MOLDEN_FORMAT false
$end