$molecule
0 1
 C        -4.21715779640000   -0.25097632590000   -0.06537502310000
 C        -3.31683536450000    0.71484801390000    0.07169742930000
 C        -1.86805911620000    0.55417254950000    0.08971534240000
 C        -1.22062033280000   -0.67774905640000   -0.00906248760000
 C         0.16832007730000   -0.74208366420000    0.01715789560000
 C         0.84837932220000   -2.04231173230000   -0.01334804880000
 C         0.45766862260000   -3.06465920550000   -0.76208822590000
 C         0.87194503520000    0.46882530760000    0.13374490060000
 C         2.35524023390000    0.59169617130000    0.12574935330000
 O         2.94304010420000    1.42266820070000    0.76036176090000
 O         3.02319389120000   -0.25984803270000   -0.67919012540000
 C         0.12869441330000    1.64607312510000    0.24884618260000
 N        -1.18175280060000    1.69301903370000    0.22421627780000
 H        -5.27111612280000   -0.03304821790000   -0.06830349240000
 H        -3.95234247960000   -1.28883546570000   -0.17894394140000
 H        -3.62954158340000    1.74391967210000    0.18174915550000
 H        -1.78859894570000   -1.59188242590000   -0.06996754700000
 H         1.70951891660000   -2.14051300170000    0.63644883500000
 H        -0.38204052780000   -2.99133838280000   -1.43381827710000
 H         0.97469921520000   -4.00828705460000   -0.74362511420000
 H         2.43655496300000   -0.87387110580000   -1.14327433170000
 H         0.64511113910000    2.59051033310000    0.35730507310000
$end

$rem
 BASIS = 6-31G*
 GUI = 2
 METHOD = B3LYP
 PRINT_ORBITALS false
 MOLDEN_FORMAT false
$end