$molecule
0 1
 C        -3.89498372400000   -0.33041916160000    0.01082904950000
 C        -2.95794394140000    0.60929655150000    0.05900912140000
 C        -1.51539728460000    0.41155191270000    0.01625669300000
 C        -0.68064418180000    1.53031568090000   -0.04670260210000
 C         0.68781609980000    1.38163260820000   -0.10190125360000
 C         1.28943857810000    0.12530752770000   -0.08975333930000
 C         2.73803243540000   -0.01607880910000   -0.19674916570000
 C         3.62934388280000    0.86219461100000    0.24656280350000
 C         0.45757003970000   -1.00922452340000   -0.00225097900000
 N         0.98936883350000   -2.28661710970000   -0.00494976160000
 C        -0.92262766090000   -0.84641684090000    0.04350106460000
 H        -4.94156092920000   -0.08002896100000    0.04568395280000
 H        -3.66639156780000   -1.37925844230000   -0.07028661780000
 H        -3.26374818620000    1.64663831030000    0.12811806180000
 H        -1.11512575450000    2.51933133240000   -0.06586036440000
 H         1.31522179790000    2.25674272340000   -0.18221356990000
 H         3.08570125590000   -0.91418727330000   -0.69337648010000
 H         3.34001247900000    1.76033257730000    0.76566635880000
 H         4.68709022350000    0.70841619260000    0.11622916860000
 H         1.92433785930000   -2.38604147830000    0.35401225110000
 H         0.35897406970000   -3.01528896630000    0.29003722620000
 H        -1.53816339870000   -1.73165211380000    0.11007147140000
$end

$rem
 BASIS = 6-31G*
 GUI = 2
 METHOD = B3LYP
 PRINT_ORBITALS false
 MOLDEN_FORMAT false
$end