$molecule
0 1
 C         3.45398478140000   -0.97650315050000   -0.00056900110000
 C         2.79268558850000    0.17466014220000    0.00064922210000
 C         1.33984539960000    0.26242615330000    0.00014844740000
 C         0.68698142050000    1.50700959880000   -0.00049056610000
 C        -0.68697934750000    1.50701759580000   -0.00048942940000
 C        -1.33985713390000    0.26243517750000    0.00013944280000
 C        -2.79270459340000    0.17467054110000    0.00068631520000
 C        -3.45395337860000   -0.97652160090000   -0.00059673400000
 N        -0.64356986110000   -0.87457937930000    0.00029481130000
 N         0.64355594840000   -0.87458995380000    0.00030881430000
 H         4.52964561500000   -1.01545966310000   -0.00004434490000
 H         2.91812820080000   -1.90983123270000   -0.00214591040000
 H         3.31609952260000    1.12256957740000    0.00223374800000
 H         1.25600886960000    2.42605870210000   -0.00116756510000
 H        -1.25598523580000    2.42608160060000   -0.00107815730000
 H        -3.31612336350000    1.12257255020000    0.00215811520000
 H        -2.91799679280000   -1.90979700700000   -0.00213792940000
 H        -4.52961608250000   -1.01557336380000    0.00001772160000
$end

$rem
 BASIS = 6-31G*
 GUI = 2
 METHOD = B3LYP
 PRINT_ORBITALS false
 MOLDEN_FORMAT false
$end