$molecule
0 1
 C        -2.69770731710000   -3.10502343420000    0.97811421210000
 C        -2.47169518400000   -2.47568162440000   -0.39607917500000
 N        -1.92255972260000   -1.15057498630000   -0.28940269380000
 C        -2.65013244890000    0.01009758640000   -0.15404607500000
 C        -1.76520450290000    1.10504182860000   -0.00949612090000
 C        -2.26625227480000    2.39224023600000    0.13083749060000
 C        -3.63485732400000    2.57265765070000    0.12803906830000
 C        -4.49977064640000    1.48940766210000   -0.01084904310000
 C        -4.02508949780000    0.19956271340000   -0.15198436160000
 C        -0.59003445290000   -0.84225313130000   -0.20587059960000
 C        -0.43831947130000    0.55729867470000   -0.04275577040000
 C         0.82449087480000    1.11437535610000    0.05315703000000
 C         1.94573217470000    0.28904566550000   -0.00987621220000
 C         3.25266815400000    0.91415942070000    0.09422999840000
 C         4.45225734360000    0.35285317490000    0.05908849890000
 F         4.75873933450000   -0.93439333640000   -0.08055316170000
 F         5.58542187990000    1.05169784940000    0.16649750210000
 C         1.77438891730000   -1.09693713730000   -0.16774744630000
 C         0.52495546650000   -1.66962818480000   -0.26477266650000
 H        -3.11275319230000   -4.10347847770000    0.87014924620000
 H        -3.38775262910000   -2.49896410590000    1.56056807760000
 H        -1.75727689810000   -3.17252910970000    1.52010116180000
 H        -3.41745763950000   -2.41539016390000   -0.94135584960000
 H        -1.78229623160000   -3.09025243410000   -0.98130582690000
 H        -1.59606009450000    3.23141294220000    0.24046262230000
 H        -4.04609911620000    3.56510988970000    0.23644412160000
 H        -5.56601155870000    1.66179597370000   -0.00604555490000
 H        -4.71055446420000   -0.62834378560000   -0.25410284810000
 H         0.93945173520000    2.18089936830000    0.17671974560000
 H         3.26035377190000    1.98802040910000    0.21669160950000
 H         2.63893114360000   -1.73789864130000   -0.21293169510000
 H         0.42814665790000   -2.73840970900000   -0.38096982270000
$end

$rem
 BASIS = 6-31G*
 GUI = 2
 METHOD = B3LYP
 PRINT_ORBITALS false
 MOLDEN_FORMAT false
$end