$molecule
0 1
 C         3.05247294940000   -1.75110343900000   -0.10895394350000
 C         2.62206796130000   -0.51020310080000    0.08120029180000
 C         1.23714352810000   -0.05165341590000    0.04224442970000
 C         0.99181215860000    1.32226329230000    0.04742939890000
 C        -0.30576374790000    1.80813237250000   -0.00244043040000
 O        -0.57765108980000    3.14281845480000   -0.00734607330000
 C        -1.37423251770000    0.92265573800000   -0.04921169790000
 C        -1.15390768620000   -0.45273667640000   -0.03795066190000
 C        -2.31177764660000   -1.34070538440000   -0.07461772150000
 C        -2.31004729940000   -2.65551818870000    0.10563948460000
 C         0.15565791230000   -0.92540230810000    0.00385805770000
 H         4.10069083760000   -1.99261848960000   -0.06502243230000
 H         2.38950519950000   -2.57178565720000   -0.32210258160000
 H         3.34906169380000    0.27025949910000    0.27280644050000
 H         1.82304006690000    2.01588278080000    0.08125420670000
 H         0.24602771940000    3.64379871800000    0.02650175800000
 H        -2.37520424960000    1.32361308090000   -0.08525352630000
 H        -3.25419812630000   -0.83869245780000   -0.25635977410000
 H        -1.41365925710000   -3.21634140430000    0.30781323930000
 H        -3.22151873000000   -3.22696446460000    0.06402999440000
 H         0.33494898510000   -1.98714890330000    0.00717611770000
$end

$rem
 BASIS = 6-31G*
 GUI = 2
 METHOD = B3LYP
 PRINT_ORBITALS false
 MOLDEN_FORMAT false
$end