$molecule
0 1
 C         2.53276493170000   -2.85119079060000    0.18393466480000
 C         2.41076400480000   -1.54718749910000   -0.03921805840000
 C         1.17816295920000   -0.77370541280000   -0.02755677010000
 C        -0.07875516960000   -1.37476913580000   -0.03091516310000
 C        -1.24779643670000   -0.63359299990000   -0.02881229540000
 O        -2.50009409320000   -1.18449261490000   -0.02920405310000
 C        -2.62128221810000   -2.58371357960000   -0.03786932390000
 C        -1.17846709990000    0.77358251340000   -0.02207706940000
 C        -2.41145088560000    1.54634867240000   -0.02728974450000
 C        -2.53220374250000    2.85441620770000    0.17214289460000
 C         0.07865184290000    1.37450741190000   -0.02689109200000
 C         1.24759343280000    0.63334206570000   -0.03046897460000
 O         2.50014424520000    1.18364892390000   -0.03179089280000
 C         2.62186501550000    2.58286469660000   -0.03270234610000
 H         3.49447704470000   -3.33367721770000    0.15267067110000
 H         1.69677683590000   -3.48931420940000    0.41526068100000
 H         3.29667233310000   -0.96048721490000   -0.23741717110000
 H        -0.12139364060000   -2.45071799250000   -0.04919479280000
 H        -3.69186962660000   -2.78479331920000   -0.03738132670000
 H        -2.17066242610000   -3.03373253510000    0.85301364080000
 H        -2.17288840620000   -3.02354569360000   -0.93500972930000
 H        -3.29982182340000    0.95542320100000   -0.20078841410000
 H        -1.69406779370000    3.49939379140000    0.37516342630000
 H        -3.49546452860000    3.33418928890000    0.14737104690000
 H         0.12175946030000    2.45045951710000   -0.04055801010000
 H         3.69253501540000    2.78356313240000   -0.03271316330000
 H         2.17274540270000    3.02785567650000    0.86146814090000
 H         2.17223367730000    3.02802553050000   -0.92662571750000
$end

$rem
 BASIS = 6-31G*
 GUI = 2
 METHOD = B3LYP
 PRINT_ORBITALS false
 MOLDEN_FORMAT false
$end