$molecule
0 1
 C         3.99605073140000    1.52893732610000    0.34271683450000
 C         3.70007190280000    0.24939286580000    0.14543386170000
 C         2.36473953750000   -0.31126772020000   -0.00944848270000
 C         2.21260158800000   -1.68443816270000   -0.23336453120000
 C         0.96731147370000   -2.25605777930000   -0.38115211670000
 C        -0.20266918430000   -1.49237239230000   -0.29338497860000
 C        -1.50042300730000   -2.15070622360000   -0.39468760100000
 C        -2.54374445680000   -1.89367321370000    0.37979438000000
 C        -0.03518242470000   -0.12624310950000   -0.09862109570000
 S        -1.37422272470000    1.03586909650000   -0.12409174070000
 O        -0.87361670950000    2.35469791810000   -0.29972135620000
 O        -2.51522911240000    0.62065799500000   -0.85881628390000
 F        -1.80513743030000    0.96883359420000    1.47550680480000
 C         1.20291836740000    0.45974569990000    0.03646226230000
 H         5.01664564720000    1.85410130480000    0.44748837110000
 H         3.24551392030000    2.29739761830000    0.40568418830000
 H         4.50157209350000   -0.47653561870000    0.08903069070000
 H         3.09264737540000   -2.30845421760000   -0.29505626270000
 H         0.88077189530000   -3.31928142180000   -0.55002369300000
 H        -1.54975801490000   -2.94663550660000   -1.12726372700000
 H        -2.51844149490000   -1.15335187010000    1.15736297300000
 H        -3.46621611350000   -2.43623482380000    0.26689842670000
 H         1.23473924670000    1.52845801390000    0.16407550500000
$end

$rem
 BASIS = 6-31G*
 GUI = 2
 METHOD = B3LYP
 PRINT_ORBITALS false
 MOLDEN_FORMAT false
$end