$molecule
0 1
 C        -3.92917854880000   -1.65150372330000    0.15009739680000
 C        -2.61324981860000   -1.64619113770000    0.32228320340000
 C        -1.72061454150000   -0.50486796200000    0.14598978040000
 C        -2.18401283390000    0.79889963340000    0.01621522770000
 C        -1.30823219280000    1.86853476970000   -0.15590749270000
 C        -1.76102351160000    3.24969506940000   -0.29011108650000
 C        -2.99029337690000    3.70207613640000   -0.07667298710000
 C         0.06024160460000    1.60900091890000   -0.20574917070000
 C         0.52450929210000    0.31224645690000   -0.06698436500000
 O         1.92874047900000    0.18281189760000   -0.12523462260000
 C         2.49755259740000   -0.99405085290000   -0.00265533240000
 F         2.25814530710000   -1.61159318230000    1.16999270770000
 F         2.14955843400000   -1.88530219910000   -0.95043028230000
 F         3.81649550360000   -0.84686082940000   -0.08933586060000
 C        -0.34240860600000   -0.74579886250000    0.11300515070000
 H        -4.50714061210000   -2.54723090770000    0.29785431380000
 H        -4.48245841360000   -0.77925443270000   -0.15293234540000
 H        -2.11720915280000   -2.56623540250000    0.60413763310000
 H        -3.24404367170000    0.98579397290000    0.05094046030000
 H        -0.98654105490000    3.94862512030000   -0.57916975970000
 H        -3.80200435810000    3.06619830690000    0.23216062850000
 H        -3.22959153260000    4.74453617120000   -0.19634532170000
 H         0.77490404880000    2.40449659710000   -0.34166903890000
 H         0.01122502920000   -1.75908884490000    0.21997128550000
$end

$rem
 BASIS = 6-31G*
 GUI = 2
 METHOD = B3LYP
 PRINT_ORBITALS false
 MOLDEN_FORMAT false
$end