$molecule
0 1
 C        -3.52003087070000    0.22627030660000    0.48063436280000
 C        -2.45359912210000   -0.18562661130000   -0.19110405870000
 C        -1.12894020970000    0.42936611200000   -0.11319952330000
 C        -1.01825999210000    1.81267407520000    0.01903658780000
 C         0.21325195430000    2.43574622540000    0.01370958920000
 C         1.36644331140000    1.68294385540000   -0.12589552340000
 C         1.27939187780000    0.30653945460000   -0.25926774160000
 O         2.44810369110000   -0.41947885030000   -0.42629395450000
 C         2.91115331210000   -1.04848425730000    0.74801528820000
 C         0.03660379800000   -0.34329544780000   -0.24624084620000
 C         0.01667500570000   -1.80005281580000   -0.37745430870000
 C        -0.78580531570000   -2.62264793230000    0.28432521760000
 H        -4.47877041990000   -0.25001573060000    0.36583295140000
 H        -3.47379565860000    1.03896743440000    1.18654408100000
 H        -2.53367859070000   -1.03357273540000   -0.85965126230000
 H        -1.91836532770000    2.40344455780000    0.09773736570000
 H         0.27877663420000    3.50917674810000    0.11141416970000
 H         2.34001204800000    2.14880140450000   -0.14319348580000
 H         3.80764654070000   -1.59774512200000    0.46555463840000
 H         2.16744837960000   -1.74346467940000    1.15359666120000
 H         3.16329302630000   -0.30981445100000    1.51802862940000
 H         0.76874984950000   -2.19912334730000   -1.04790790530000
 H        -1.50708395870000   -2.26483753220000    1.00029309590000
 H        -0.73436438690000   -3.68992392100000    0.14736652040000
$end

$rem
 BASIS = 6-31G*
 GUI = 2
 METHOD = B3LYP
 PRINT_ORBITALS false
 MOLDEN_FORMAT false
$end