$molecule
0 1
 C        -3.89116097640000   -2.11952877940000   -0.04802764340000
 C        -2.57793123220000   -1.94125922790000    0.02751797900000
 C        -1.86946717630000   -0.66579742470000    0.01749990120000
 C        -2.52610756630000    0.56672494440000    0.01199774030000
 C        -1.80754647940000    1.74557106610000    0.00130074140000
 C        -0.42770905480000    1.69817169330000   -0.00436474870000
 F         0.25608236750000    2.86222701150000   -0.01520161820000
 C         0.27772025870000    0.49090744780000    0.00273195540000
 C         1.73090535230000    0.53444105560000   -0.00275870630000
 C         2.57915871100000   -0.48261477190000    0.00022987860000
 F         2.29801130690000   -1.78025755360000    0.00964712190000
 F         3.89946015800000   -0.32826866590000   -0.00615047480000
 C        -0.47572918920000   -0.68102960570000    0.01546530740000
 H        -4.32037883520000   -3.10635721410000   -0.03524098410000
 H        -4.59018243040000   -1.30496980240000   -0.12848332340000
 H        -1.93446881390000   -2.80918241750000    0.09812154550000
 H        -3.60299346720000    0.60847235440000    0.02020112100000
 H        -2.30158062930000    2.70448436820000   -0.00205820670000
 H         2.18190743820000    1.51636975460000   -0.01089307120000
 H         0.02863298300000   -1.63376728600000    0.02167204690000
$end

$rem
 BASIS = 6-31G*
 GUI = 2
 METHOD = B3LYP
 PRINT_ORBITALS false
 MOLDEN_FORMAT false
$end