$molecule
0 1
 C         4.77801833010000    0.09232839230000   -0.18287394610000
 C         3.57773859720000    0.66014586020000   -0.14617193400000
 C         2.29612828840000   -0.02433078470000   -0.04909726780000
 C         2.16413551420000   -1.41476170890000    0.03907186400000
 C         0.92778830940000   -2.01838408340000    0.12159147560000
 C        -0.25413972020000   -1.26730484120000    0.12688826370000
 C        -1.57497860640000   -1.87516581470000    0.18936470680000
 C        -1.83199998910000   -3.06822556360000    0.71370660880000
 C        -0.10382871780000    0.11273201360000    0.03864392150000
 S        -1.50595134530000    1.19011190480000    0.05107493290000
 O        -2.51912369280000    0.80518577400000    0.96877683120000
 O        -1.10771992420000    2.55090306360000   -0.03269388300000
 F        -2.10454449400000    0.81479714700000   -1.44611240220000
 C         1.12079695130000    0.73070041420000   -0.04626806530000
 H         5.67202615620000    0.68664146230000   -0.25676536380000
 H         4.92432076710000   -0.97333632980000   -0.14317416510000
 H         3.50304464700000    1.73884031170000   -0.19302410440000
 H         3.04722339000000   -2.03430458550000    0.03589308550000
 H         0.86452519740000   -3.09457579660000    0.16243714730000
 H        -2.38173836830000   -1.27734039500000   -0.20503805330000
 H        -1.06891761010000   -3.68170615800000    1.16344669260000
 H        -2.83188859350000   -3.46432524460000    0.73199200420000
 H         1.14281653750000    1.80717171020000   -0.11264089000000
$end

$rem
 BASIS = 6-31G*
 GUI = 2
 METHOD = B3LYP
 PRINT_ORBITALS false
 MOLDEN_FORMAT false
$end