$molecule
0 1
 C        -1.97100216230000    1.40933031530000    2.00457551010000
 C        -2.80104613640000    0.77053485750000    1.19231699440000
 C        -2.43551277860000   -0.27263831970000    0.23325540690000
 C        -3.33032663140000   -1.32499654860000    0.03805277220000
 C        -3.03189296170000   -2.37729961940000   -0.80484276690000
 C        -1.82622185050000   -2.39081400710000   -1.48671199930000
 C        -0.93752241670000   -1.34493140920000   -1.32358930000000
 C        -1.22493620010000   -0.28067249030000   -0.47348669300000
 C        -0.27373789330000    0.84788045340000   -0.41874868230000
 C        -0.68870635510000    2.09770629810000   -0.86379321960000
 C         0.18731807790000    3.16573821880000   -0.89659883450000
 C         1.49799435530000    2.99313686570000   -0.48100392740000
 C         1.92664953430000    1.75805145960000   -0.03596678760000
 C         1.05525251930000    0.66883981870000   -0.00151635160000
 C         1.46352202490000   -0.63416277720000    0.50872214380000
 C         2.69506435350000   -1.10493982550000    0.62397332280000
 F         3.83316741060000   -0.51125006870000    0.27880891670000
 F         2.97279348970000   -2.31309835880000    1.11452424990000
 H        -2.32909585350000    2.14362782460000    2.70604789790000
 H        -0.91121421180000    1.22159284700000    2.01330644720000
 H        -3.86461266490000    0.96814078740000    1.25805280280000
 H        -4.26841066000000   -1.31762493520000    0.57505027420000
 H        -3.73793718510000   -3.18430995610000   -0.93266725340000
 H        -1.58331901740000   -3.20746906430000   -2.14982247460000
 H        -0.00708464740000   -1.33579198730000   -1.87365132810000
 H        -1.71063625100000    2.22201767220000   -1.19097243700000
 H        -0.14962416900000    4.12997139610000   -1.24643829090000
 H         2.18707916390000    3.82397040330000   -0.50011067320000
 H         2.94430960470000    1.64178867260000    0.30047296840000
 H         0.67683305780000   -1.30657514190000    0.81976480510000
$end

$rem
 BASIS = 6-31G*
 GUI = 2
 METHOD = B3LYP
 PRINT_ORBITALS false
 MOLDEN_FORMAT false
$end