$molecule
0 1
 C         3.61544097610000    0.87732284640000    0.04087062040000
 C         2.84045838820000   -0.19943209290000   -0.02216455390000
 C         1.38653812360000   -0.22056067220000   -0.01443913100000
 C         0.70660234350000   -1.44181507450000   -0.00052920640000
 C        -0.67226888350000   -1.45997525210000    0.00973164860000
 C        -1.36884713100000   -0.24738119780000    0.00365101400000
 C        -2.82508854190000   -0.22404296660000    0.01509350150000
 C        -3.53900898030000    0.89538588570000    0.00340489640000
 N        -0.72370044450000    0.92134421080000   -0.01507206540000
 C         0.58843568050000    0.93016874480000   -0.02397502690000
 H         4.68864709730000    0.79383945680000    0.03068398900000
 H         3.21984044920000    1.87602090160000    0.10762220780000
 H         3.30226066870000   -1.17858853710000   -0.08007392460000
 H         1.26589042700000   -2.36809841160000    0.00428800950000
 H        -1.21232771130000   -2.39534533740000    0.02175582520000
 H        -3.30711815070000   -1.19310003700000    0.03375519090000
 H        -3.04659019660000    1.85219305140000   -0.01553920090000
 H        -4.61538895160000    0.88736698800000    0.01231803170000
 H         1.03572835820000    1.91517419370000   -0.04411197900000
$end

$rem
 BASIS = 6-31G*
 GUI = 2
 METHOD = B3LYP
 PRINT_ORBITALS false
 MOLDEN_FORMAT false
$end