$molecule
0 1
 C         2.15875747160000   -3.14518712110000    0.39519152090000
 C         2.25371746120000   -1.97733909630000   -0.22581435090000
 C         1.27231919510000   -0.89590613400000   -0.13903762780000
 C        -0.08059649760000   -1.21192067890000   -0.04796352420000
 C        -1.06866170400000   -0.24097076110000   -0.02475999940000
 C        -2.55347526490000   -0.56390425870000    0.04538519120000
 C        -2.82355386520000   -2.06686346680000    0.15553797530000
 C        -3.16173515520000    0.11959621610000    1.27801064240000
 C        -3.23819666870000   -0.04475937780000   -1.22666983130000
 C        -0.65443511100000    1.08324736490000   -0.08780522550000
 C         0.68510132730000    1.45017381340000   -0.13274420800000
 C         0.99100773400000    2.88176175020000   -0.14668627880000
 C         1.98147469660000    3.48471662540000    0.49971366860000
 C         1.67521642850000    0.45113786510000   -0.17649102280000
 N         3.01271973060000    0.78966252060000   -0.20191657460000
 H         2.90095908740000   -3.91530529100000    0.27042180980000
 H         1.34571534910000   -3.37106337280000    1.06406789710000
 H         3.11225683430000   -1.80098372660000   -0.86603807580000
 H        -0.33996304830000   -2.25711107350000   -0.03295383520000
 H        -2.36087243750000   -2.48095579940000    1.04841789530000
 H        -2.45163954530000   -2.59749979460000   -0.71783642150000
 H        -3.89622908960000   -2.23918521030000    0.22105760190000
 H        -2.66097662640000   -0.22183791910000    2.18157946970000
 H        -4.22018222590000   -0.12072581510000    1.35709068350000
 H        -3.06256818130000    1.19997044850000    1.22249153420000
 H        -2.80338124790000   -0.51593969140000   -2.10589131580000
 H        -3.12252572820000    1.03115799080000   -1.32510849290000
 H        -4.30188925180000   -0.27319879250000   -1.20231507490000
 H        -1.38562959140000    1.87858206290000   -0.08172432920000
 H         0.28794517410000    3.48566687010000   -0.71033989480000
 H         2.66578196110000    2.94825738930000    1.13485315380000
 H         2.11237976280000    4.55333527810000    0.45170785270000
 H         3.21332479550000    1.71053747050000   -0.56201714150000
 H         3.64360437450000    0.07081081150000   -0.51805842310000
$end

$rem
 BASIS = 6-31G*
 GUI = 2
 METHOD = B3LYP
 PRINT_ORBITALS false
 MOLDEN_FORMAT false
$end