$molecule
0 1
 C         4.74235458240000    0.40132590970000   -0.02152216710000
 C         3.75842104490000   -0.49053987420000    0.00604052700000
 C         2.33291797210000   -0.20342692080000    0.00605898660000
 C         1.40967718370000   -1.25294954100000    0.01488886980000
 C         0.05505506420000   -0.98859393030000    0.01286396090000
 C        -0.36577413170000    0.34394702950000    0.00206236380000
 C        -1.75541844860000    0.77293038560000   -0.00325541220000
 C        -2.84518752070000    0.02070855710000   -0.00248795940000
 F        -2.91649862300000   -1.30534308930000    0.00406735490000
 F        -4.07857044690000    0.51607882450000   -0.00853540930000
 N         0.51025560830000    1.35212259310000   -0.00408162700000
 C         1.79608313870000    1.09002857220000   -0.00190053920000
 H         5.77366911660000    0.09324740270000   -0.01982878900000
 H         4.56639066230000    1.46268793280000   -0.04779528520000
 H         4.00284654590000   -1.54600669220000    0.02977773200000
 H         1.76060562970000   -2.27577093980000    0.02268067860000
 H        -0.65622734660000   -1.79754960170000    0.01963907560000
 H        -1.90035234660000    1.84267525510000   -0.00956253270000
 H         2.43696192320000    1.96096140790000   -0.00589191830000
$end

$rem
 BASIS = 6-31G*
 GUI = 2
 METHOD = B3LYP
 PRINT_ORBITALS false
 MOLDEN_FORMAT false
$end