$molecule
0 1
 C        -4.38878521540000   -0.52179818070000    0.87019023450000
 C        -3.65083555930000    0.18795914170000    0.02621276790000
 C        -2.19298281740000    0.15849879040000   -0.03580328860000
 C        -1.46565697780000   -0.97515567360000    0.28401375480000
 C        -0.07181566820000   -1.00365557150000    0.18176023650000
 C         0.65095100990000   -2.23978221190000    0.45445154560000
 C         1.75526378700000   -2.63398686670000   -0.16492477320000
 C         0.54490949290000    0.18506792680000   -0.22185968340000
 C         2.03485644930000    0.32972742240000   -0.28286451140000
 O         2.67305124610000    0.61347472100000   -1.26092640310000
 O         2.57005232200000    0.13669538460000    0.93080432230000
 C         3.98417179820000    0.23916111550000    1.01560700850000
 N        -0.12671880640000    1.28380531620000   -0.52848483240000
 C        -1.45277213350000    1.29104033330000   -0.45774264240000
 N        -2.05138170320000    2.45523006050000   -0.83814934430000
 H        -5.46387602970000   -0.46993406100000    0.86119204960000
 H        -3.94919321320000   -1.16965503280000    1.60966267300000
 H        -4.13701818710000    0.84278987560000   -0.68621577400000
 H        -1.98779040420000   -1.87330644180000    0.58178116330000
 H         0.19189071240000   -2.88259592750000    1.19607562490000
 H         2.21367073680000   -2.05105196940000   -0.94605646410000
 H         2.23174291160000   -3.56929335280000    0.07562270080000
 H         4.22407796810000    0.31855442340000    2.07286298310000
 H         4.33338159740000    1.11859530810000    0.47088486270000
 H         4.44925674250000   -0.65144909500000    0.58694616250000
 H        -1.42016957560000    3.22428222630000   -0.99074482690000
 H        -2.96733167900000    2.67460195400000   -0.48937507220000
$end

$rem
 BASIS = 6-31G*
 GUI = 2
 METHOD = B3LYP
 PRINT_ORBITALS false
 MOLDEN_FORMAT false
$end