$molecule
0 1
 C         4.22168212890000   -0.94829368520000   -0.01245192550000
 C         3.28344593840000   -0.00745897790000    0.04865876150000
 C         1.86295264940000   -0.23761774040000    0.04224466610000
 N         1.28673310410000   -1.46038144490000   -0.03070622000000
 N        -0.04710776510000   -1.40967376360000   -0.02645585000000
 C        -0.36075765540000   -0.12356278600000    0.03574687300000
 N        -1.64609406100000    0.35838912280000    0.11939483110000
 C        -2.85276377700000   -0.28780115460000    0.03963882720000
 C        -2.80636182910000   -1.75908430950000   -0.24547964810000
 O        -3.87248463880000    0.34960761530000    0.18969194990000
 C         0.81158739320000    0.68324076950000    0.07639354260000
 C         0.92296251080000    2.12381240920000    0.15344590330000
 C         0.06799964980000    3.00005113520000   -0.36289446570000
 H         5.26656380080000   -0.69416743650000   -0.00041843990000
 H         3.99292276040000   -1.99882953290000   -0.07757285380000
 H         3.57018033070000    1.03320320250000    0.10709601160000
 H         1.74401544980000   -2.35432761180000   -0.09156018100000
 H        -1.71201096440000    1.34906906320000    0.32450523750000
 H        -2.24038218990000   -1.94515113040000   -1.15403342140000
 H        -3.82075133640000   -2.13362714320000   -0.34749299260000
 H        -2.29667489690000   -2.27097966370000    0.56638758340000
 H         1.80262022330000    2.48639595440000    0.67177776310000
 H        -0.79106337300000    2.70742914750000   -0.94304182380000
 H         0.22433002620000    4.05943858610000   -0.25397185280000
$end

$rem
 BASIS = 6-31G*
 GUI = 2
 METHOD = B3LYP
 PRINT_ORBITALS false
 MOLDEN_FORMAT false
$end