$molecule
0 1
 C        -3.52753839440000   -2.65573125630000   -0.01308293190000
 C        -2.20474985880000   -2.53872975770000    0.00331135890000
 C        -1.43738270860000   -1.30191232050000   -0.02299360900000
 C        -2.02286681710000   -0.03638484160000   -0.08409780780000
 C        -1.27671881050000    1.12828502610000   -0.11074426770000
 C        -1.94375788360000    2.42759644720000   -0.22416438220000
 C        -3.10240691690000    2.73295624990000    0.34318581620000
 C         0.13520037080000    1.05792376200000   -0.06129191630000
 N         0.88879722990000    2.19454854290000   -0.09032676110000
 C         0.72387138080000   -0.21682261820000   -0.01545409140000
 C         2.21551393020000   -0.33397163680000    0.02657290170000
 F         2.75807286550000    0.28592779320000    1.10535136060000
 F         2.65514504410000   -1.59532148130000    0.07383334510000
 F         2.82274215940000    0.23259514190000   -1.03995590490000
 C        -0.04776640150000   -1.36805857330000    0.00277627070000
 H        -4.00180608700000   -3.62148302580000    0.01034098430000
 H        -4.18984247200000   -1.80815609830000   -0.05130201720000
 H        -1.60080121770000   -3.43684409240000    0.04199400790000
 H        -3.09625338140000    0.04911762470000   -0.13784356860000
 H        -1.44092231570000    3.16494432390000   -0.83823242040000
 H        -3.62741136930000    2.03831771370000    0.97707306240000
 H        -3.56242200910000    3.69649312030000    0.20659857360000
 H         0.43562513740000    3.06370076140000    0.12776671250000
 H         1.87094214980000    2.14904412460000    0.11385562800000
 H         0.44259689810000   -2.32915171750000    0.03944356100000
$end

$rem
 BASIS = 6-31G*
 GUI = 2
 METHOD = B3LYP
 PRINT_ORBITALS false
 MOLDEN_FORMAT false
$end