$molecule
0 1
 C        -4.06199890020000    0.76182533040000    0.02551801360000
 C        -3.19905481760000   -0.24549819780000   -0.04448774370000
 C        -1.74394043620000   -0.17841504570000   -0.02856990040000
 C        -1.01092281620000   -1.36390190530000   -0.07910593460000
 C         0.37582493140000   -1.43220721210000   -0.06235937310000
 C         0.97941819510000   -2.76047557700000   -0.11283492300000
 C         2.22202809880000   -3.11365477880000    0.19243347400000
 C         1.12244283880000   -0.23035887510000   -0.01329417630000
 O         2.46795744260000   -0.33353781380000   -0.03048988950000
 C         3.28845507920000    0.81101675380000   -0.15359587500000
 C         0.39876430110000    0.96177387330000    0.03580044850000
 F         1.01988820460000    2.16634010460000    0.09776988790000
 C        -0.98991469080000    0.99087866360000    0.03190628710000
 F        -1.56553697110000    2.20538436000000    0.08452320470000
 H        -5.12243083920000    0.57543839770000    0.00496555250000
 H        -3.76581921070000    1.79154734650000    0.10534137900000
 H        -3.58016683490000   -1.25663121860000   -0.12060626890000
 H        -1.56081316300000   -2.29261494700000   -0.12641451990000
 H         0.28260051320000   -3.53346113270000   -0.41485782820000
 H         2.96322325090000   -2.41203971160000    0.52426833230000
 H         2.52935721760000   -4.14389900820000    0.12325327010000
 H         4.30212957630000    0.42285873600000   -0.24588173350000
 H         3.22702739040000    1.45234418790000    0.72862767570000
 H         3.04278246510000    1.39231771810000   -1.04509751760000
$end

$rem
 BASIS = 6-31G*
 GUI = 2
 METHOD = B3LYP
 PRINT_ORBITALS false
 MOLDEN_FORMAT false
$end