$molecule
0 1
 C         3.75000215460000   -0.93536281220000   -0.12502803570000
 C         2.61485725620000   -1.58151547900000    0.13070036880000
 C         1.26661039490000   -1.07680614480000    0.02196911870000
 S        -0.00369503250000   -2.26167363410000   -0.00060510010000
 C        -1.27013113650000   -1.07268175820000   -0.02259890040000
 C        -2.62004954010000   -1.57295777400000   -0.13117632830000
 C        -3.75286634920000   -0.92365374090000    0.12688257140000
 C        -0.71270378820000    0.18790544970000   -0.00701241500000
 N        -1.42238055390000    1.43376486900000   -0.16382340450000
 O        -2.41086158160000    1.62400571900000    0.50076157390000
 O        -0.96423456090000    2.19226507700000   -0.98739204970000
 C         0.71327473860000    0.18558044290000    0.00679988390000
 N         1.42705406600000    1.42907365540000    0.16399483460000
 O         2.41578478230000    1.61647159770000   -0.50101577040000
 O         0.97167361550000    2.18865384420000    0.98809559520000
 H         4.69462797610000   -1.43556809780000    0.00100520480000
 H         3.78194629620000    0.08283828560000   -0.47030663000000
 H         2.65072186730000   -2.62310368390000    0.42687222580000
 H        -2.65946231100000   -2.61389315470000   -0.42924347220000
 H        -3.78110099270000    0.09404420860000    0.47404661160000
 H        -4.69922425890000   -1.42062315360000    0.00096762830000
$end

$rem
 BASIS = 6-31G*
 GUI = 2
 METHOD = B3LYP
 PRINT_ORBITALS false
 MOLDEN_FORMAT false
$end