$molecule
0 1
 C         0.93873301790000   -4.07649332330000   -0.11266961350000
 C         1.60934120570000   -2.93373024160000   -0.03007624240000
 C         1.02919151980000   -1.59828412240000    0.00178489400000
 C        -0.33168940630000   -1.33975475110000   -0.04982620970000
 C        -0.86327302940000   -0.05188077520000   -0.00003301100000
 C        -2.33771931230000   -0.00468523210000   -0.02899411930000
 O        -3.03716081200000   -0.98572439750000   -0.11748906550000
 O        -2.88278925390000    1.23373207680000    0.06331708600000
 C        -4.30231420190000    1.27690276770000    0.03846083670000
 C        -0.00202905050000    1.06650971310000    0.07917853630000
 N        -0.46294523310000    2.34050651250000    0.12191033160000
 C         1.39495037800000    0.83330034320000    0.10382053320000
 C         2.38555083790000    1.91325953720000    0.17233366510000
 C         2.35619159910000    3.04438324760000   -0.52041912360000
 C         1.85662773280000   -0.47320595040000    0.08960829690000
 F         3.19457115360000   -0.66046300530000    0.14233545620000
 H         1.45323806810000   -5.02151168830000   -0.13074728700000
 H        -0.13518738130000   -4.12021911740000   -0.16540759960000
 H         2.69013974980000   -2.95755062800000    0.01946432090000
 H        -1.03545545380000   -2.15344073150000   -0.12000151740000
 H        -4.57572361360000    2.32806192760000    0.08760677110000
 H        -4.71307224210000    0.73179498310000    0.89057164180000
 H        -4.67795064590000    0.82401037750000   -0.88075523030000
 H        -1.44600112040000    2.48095708440000    0.27694949410000
 H         0.18179189770000    3.05716417750000    0.41236284620000
 H         3.23103602640000    1.70745733880000    0.81753592490000
 H         1.58299156500000    3.26527271560000   -1.23751536280000
 H         3.14261443390000    3.77398693580000   -0.42664140940000
$end

$rem
 BASIS = 6-31G*
 GUI = 2
 METHOD = B3LYP
 PRINT_ORBITALS false
 MOLDEN_FORMAT false
$end