$molecule
0 1
 C         3.84214126960000    1.41857978690000   -0.09645200360000
 C         3.32274863550000    0.19682868310000   -0.11376835970000
 C         1.90724796530000   -0.13688066350000   -0.03369223130000
 C         0.88374075460000    0.80902909870000    0.05333822340000
 C        -0.43783699530000    0.38888039730000    0.10026043470000
 C        -1.48665041110000    1.45720773870000    0.11475564690000
 O        -1.32020157050000    2.51765967110000    0.64903011380000
 O        -2.62428502350000    1.18722315700000   -0.54899106110000
 C        -0.72068185750000   -0.98737520530000    0.10504578300000
 C        -2.07101131200000   -1.53067148450000    0.24804351640000
 C        -2.49941133820000   -2.62821808010000   -0.36352813470000
 C         0.38495505830000   -1.84284337870000    0.03433804690000
 N         1.63120675720000   -1.44351856460000   -0.04777237280000
 H         4.90570477940000    1.57219589270000   -0.15775600170000
 H         3.24063892470000    2.30820593770000   -0.01839797720000
 H         3.96210286660000   -0.67204930890000   -0.18922579840000
 H         1.08895124000000    1.86703647640000    0.06938810330000
 H        -2.63177852800000    0.29720581030000   -0.93128694720000
 H        -2.72910566120000   -0.99562443570000    0.92311066670000
 H        -1.87834914470000   -3.17610774410000   -1.05257870970000
 H        -3.49367656350000   -3.00865086670000   -0.20634744520000
 H         0.23847491730000   -2.91490593450000    0.06289137290000
$end

$rem
 BASIS = 6-31G*
 GUI = 2
 METHOD = B3LYP
 PRINT_ORBITALS false
 MOLDEN_FORMAT false
$end