$molecule
0 1
 C        -2.42058843280000    1.92051840210000    0.01953773940000
 C        -2.38544905860000    0.59466794490000   -0.01040269880000
 C        -1.14790201450000   -0.18018530610000   -0.00694384860000
 C        -1.19144794560000   -1.57867198360000   -0.00995832690000
 C         0.00001990480000   -2.28135490790000   -0.00045937940000
 C         1.19147342110000   -1.57865745590000    0.00958430260000
 C         1.14789936220000   -0.18017014130000    0.00741737670000
 C         2.38543109270000    0.59471321520000    0.01150274080000
 C         2.42057020560000    1.92051073720000   -0.02056962850000
 N        -0.00000611510000    0.48714221960000    0.00039761500000
 H        -3.34675551720000    2.46920772320000    0.01775220770000
 H        -1.50621239030000    2.48709426030000    0.04755879510000
 H        -3.29839681230000    0.01374715780000   -0.03673963620000
 H        -2.14023946620000   -2.09387228350000   -0.01805557750000
 H         0.00003048510000   -3.36255535820000   -0.00084640660000
 H         2.14027550800000   -2.09384332360000    0.01740505490000
 H         3.29835122360000    0.01384263390000    0.04007215050000
 H         1.50622563240000    2.48702894990000   -0.05089329410000
 H         3.34672844330000    2.46922417820000   -0.01830249620000
$end

$rem
 BASIS = 6-31G*
 GUI = 2
 METHOD = B3LYP
 PRINT_ORBITALS false
 MOLDEN_FORMAT false
$end