$molecule
0 1
 C         0.02538398390000    2.54405987960000    0.15645407740000
 C        -0.59879896810000    1.69872517240000   -0.64905201990000
 C        -1.08658777170000    0.37424421340000   -0.25070201880000
 C        -2.39014187040000    0.02628372150000   -0.60036427200000
 C        -2.95886319080000   -1.15745882720000   -0.17258554590000
 C        -2.22657970810000   -2.02380494840000    0.62282823130000
 C        -0.92403623610000   -1.70847182580000    0.95701629680000
 C        -0.33220505470000   -0.52784323200000    0.51222573600000
 C         1.08226322720000   -0.31907226970000    0.83804703300000
 C         2.01258377220000    0.07086475040000   -0.01433468510000
 F         1.84277218130000    0.37846200630000   -1.29429299740000
 F         3.30068218380000    0.20405043510000    0.30057669310000
 H         0.32414576210000    3.52376897220000   -0.17434877930000
 H         0.25420511580000    2.29357992000000    1.17955621950000
 H        -0.84738530550000    1.99711901930000   -1.65938787770000
 H        -2.96734591860000    0.71387918370000   -1.20171031620000
 H        -3.97290851740000   -1.40156341620000   -0.45175751120000
 H        -2.66600677840000   -2.94533920460000    0.97373735410000
 H        -0.34077252520000   -2.39326296020000    1.55556104640000
 H         1.41335479210000   -0.58357467750000    1.83136204880000
$end

$rem
 BASIS = 6-31G*
 GUI = 2
 METHOD = B3LYP
 PRINT_ORBITALS false
 MOLDEN_FORMAT false
$end