$molecule
0 1
 C         2.82155234370000    2.32071405170000   -0.26872227290000
 C         2.53252547730000    1.09014809340000    0.13505067450000
 C         1.23183119340000    0.42712239240000    0.06287302990000
 C         1.19381146620000   -0.97084890940000    0.07831484140000
 F         2.34080455050000   -1.66012567110000    0.15305386150000
 C        -0.00001984390000   -1.67254510320000    0.00035251960000
 F        -0.00004687900000   -3.01126249520000    0.00061841030000
 C        -1.19382899740000   -0.97084435160000   -0.07788280380000
 F        -2.34083365550000   -1.66013313470000   -0.15235080660000
 C        -1.23182487990000    0.42713688190000   -0.06299244900000
 C        -2.53252300170000    1.09011663570000   -0.13540247160000
 C        -2.82150344140000    2.32099980610000    0.26744343900000
 C         0.00001523590000    1.08364729750000   -0.00018997220000
 F         0.00005049960000    2.42584202090000   -0.00042656800000
 H         3.82363032670000    2.70241821010000   -0.17609107040000
 H         2.09864625470000    2.98432262630000   -0.70782816330000
 H         3.31885848150000    0.46306803210000    0.53412945590000
 H        -3.31892840870000    0.46272116280000   -0.53384190260000
 H        -2.09853393840000    2.98500575450000    0.70583896910000
 H        -3.82361601740000    2.70258682920000    0.17469386850000
$end

$rem
 BASIS = 6-31G*
 GUI = 2
 METHOD = B3LYP
 PRINT_ORBITALS false
 MOLDEN_FORMAT false
$end