$molecule
0 1
 C        -0.38529040270000   -2.87531561590000    0.53275903910000
 C        -1.31562648870000   -2.16663448250000   -0.09356271670000
 C        -1.40261778680000   -0.70953095540000   -0.10963788540000
 C        -2.66440439780000   -0.11555066860000   -0.01337990980000
 N        -2.87687468470000    1.18210180920000    0.04572122300000
 C        -1.82493621180000    1.98417605200000    0.00015675340000
 C        -0.52671859380000    1.52453553270000   -0.12848404110000
 C        -0.29205567430000    0.15006535280000   -0.19148846610000
 C         1.04442895210000   -0.38511468050000   -0.42220074380000
 C         2.18707464800000    0.18130971670000   -0.06901073260000
 F         2.35085043830000    1.30848880570000    0.61201620160000
 F         3.38009532450000   -0.34518849810000   -0.33206383650000
 H        -0.40468754670000   -3.95174088410000    0.53172000830000
 H         0.40795299940000   -2.41301922780000    1.09624115140000
 H        -2.13190092500000   -2.67503234010000   -0.59186737280000
 H        -3.55049682150000   -0.73629022090000    0.03208093020000
 H        -2.03926706420000    3.04281392610000    0.05328713890000
 H         0.28849528940000    2.22548410490000   -0.20219247230000
 H         1.11524362910000   -1.33333087560000   -0.93457119180000
$end

$rem
 BASIS = 6-31G*
 GUI = 2
 METHOD = B3LYP
 PRINT_ORBITALS false
 MOLDEN_FORMAT false
$end