$molecule
0 1
 C         4.00574506750000   -1.10897884320000   -0.06005550450000
 C         3.39387731910000    0.05496239840000    0.12469332860000
 C         1.96083113000000    0.30718303830000    0.05813709860000
 C         1.46968431130000    1.55499309990000    0.44505531180000
 C         0.11936177640000    1.82716607630000    0.40902323800000
 C        -0.80105512160000    0.87193941830000   -0.02066023310000
 C        -2.23296567500000    1.16993706830000   -0.02883997530000
 C        -2.74942699800000    2.36342142550000   -0.28923469390000
 C        -0.31415511370000   -0.37780651330000   -0.42813014270000
 C        -1.25824256990000   -1.44267255460000   -0.94311964350000
 C        -1.99859319310000   -2.02388804070000    0.15013845090000
 N        -2.57377308250000   -2.47742366820000    1.02776446880000
 C         1.04118146720000   -0.64520531540000   -0.38132457020000
 H         5.07596929560000   -1.19564972890000    0.01538499920000
 H         3.47671648400000   -2.01951016160000   -0.28375055620000
 H         3.99014876960000    0.92720363340000    0.36428559220000
 H         2.15885328410000    2.31296752530000    0.78926364480000
 H        -0.24152566080000    2.78921372080000    0.74011907650000
 H        -2.89194432640000    0.34248905180000    0.20213390860000
 H        -2.13472814480000    3.20970098310000   -0.54790014180000
 H        -3.81206968600000    2.53419594060000   -0.27022404470000
 H        -0.69670706370000   -2.24070264780000   -1.43653423400000
 H        -1.96766860610000   -1.01848127570000   -1.66000810110000
 H         1.39473654980000   -1.61339505700000   -0.70389334090000
$end

$rem
 BASIS = 6-31G*
 GUI = 2
 METHOD = B3LYP
 PRINT_ORBITALS false
 MOLDEN_FORMAT false
$end