$molecule
0 1
 C         3.55073260150000   -0.03762137640000    0.00096908100000
 C         2.38739024370000   -0.68292453800000   -0.00039598320000
 C         1.09421702200000   -0.05325686390000   -0.00002854880000
 C         0.70136198280000    1.26835510920000   -0.00057128150000
 C        -0.70136788860000    1.26835533210000   -0.00016731490000
 C        -1.09422033930000   -0.05325807140000    0.00047273860000
 C        -2.38739141640000   -0.68292554140000    0.00119083420000
 C        -3.55072471560000   -0.03761015790000   -0.00206854550000
 O        -0.00000175320000   -0.84701464750000    0.00066535620000
 H         4.48580719450000   -0.56867588520000    0.00008066710000
 H         3.60519989820000    1.03698392420000    0.00280924320000
 H         2.35680822120000   -1.76438482520000   -0.00206764880000
 H         1.34322825310000    2.12527356000000   -0.00119319740000
 H        -1.34323252120000    2.12527442620000   -0.00013074650000
 H        -2.35680308050000   -1.76437200600000    0.00461495550000
 H        -3.60516088630000    1.03697494790000   -0.00596876500000
 H        -4.48578933790000   -0.56869613660000   -0.00156793210000
$end

$rem
 BASIS = 6-31G*
 GUI = 2
 METHOD = B3LYP
 PRINT_ORBITALS false
 MOLDEN_FORMAT false
$end