$molecule
0 1
 C            1.49897788390000       -3.61566809270000        0.62403361670000
 C            0.70603919450000       -2.90690149470000       -0.16634098210000
 C            0.56279524230000       -1.44779261450000       -0.12821898030000
 C           -0.71102514690000       -0.93197854510000       -0.12559044690000
 C           -0.96899371170000        0.44890969370000       -0.00091611570000
 C           -2.30274177820000        1.02347533640000        0.02737245690000
 C           -3.46644522640000        0.40328140300000       -0.09806407210000
 F           -3.69014260910000       -0.89331675320000       -0.27975047240000
 F           -4.63454858250000        1.03874458890000       -0.05772767340000
 C            0.12296097540000        1.28653164820000        0.11246308020000
 F           -0.07748836770000        2.61592306770000        0.26090454650000
 C            1.45222229140000        0.82658743640000        0.06379077630000
 C            2.54584668170000        1.71585772780000        0.13772416190000
 C            3.82565720890000        1.24765320350000        0.04506154560000
 C            4.05933640180000       -0.12115613710000       -0.14821023860000
 C            3.01651128840000       -1.00533149850000       -0.20981033900000
 C            1.68300066890000       -0.56901106190000       -0.07733093090000
 H            1.52866982040000       -4.69081838500000        0.57321656810000
 H            2.12640983750000       -3.15365128370000        1.36811128410000
 H            0.04518232090000       -3.41383064660000       -0.85854516040000
 H           -1.54286475780000       -1.61421870740000       -0.18927693680000
 H           -2.36084675420000        2.09392382940000        0.16334579990000
 H            2.34811773330000        2.77030166010000        0.25806724270000
 H            4.66075138900000        1.92951913170000        0.10137085860000
 H            5.07386891830000       -0.47530665050000       -0.25607222140000
 H            3.20752455960000       -2.05255857870000       -0.38375361310000
$end

$rem
 BASIS = 6-31G*
 GUI = 2
 METHOD = B3LYP
 PRINT_ORBITALS false
 MOLDEN_FORMAT false
$end