$molecule
0 1
 C         4.35112657510000    0.17724232650000   -0.01298766740000
 C         3.20704918340000    0.84941075000000   -0.06534217060000
 C         1.90121154790000    0.20755897730000   -0.01300354130000
 C         0.72957756900000    0.96729762380000   -0.05975790170000
 C        -0.50396139900000    0.33475604630000    0.00058584180000
 C        -1.71550626930000    1.21313408500000    0.05793235440000
 O        -1.87978736160000    2.15282904990000   -0.66654359890000
 O        -2.59020280290000    0.93200808200000    1.04331802670000
 C        -0.54696280990000   -1.06744563520000    0.05978098600000
 C        -1.77013573700000   -1.86027084780000   -0.00617349640000
 C        -2.85657220640000   -1.52131638220000   -0.69042502140000
 C         0.69059934610000   -1.72150826300000    0.12124953830000
 N         1.85587859240000   -1.12233970850000    0.09410554370000
 H         5.30567791560000    0.67235629160000   -0.05554034480000
 H         4.34834745880000   -0.89561225440000    0.07414304740000
 H         3.19303962930000    1.92732124650000   -0.15372070710000
 H         0.76883561200000    2.04402641740000   -0.12328905920000
 H        -2.36244299370000    0.12322511510000    1.52109704680000
 H        -1.71913354870000   -2.82225225060000    0.48916099500000
 H        -2.92450843600000   -0.59805761000000   -1.24233423090000
 H        -3.71563244310000   -2.16787389010000   -0.73671494800000
 H         0.72419727710000   -2.80237031890000    0.18563613510000
$end

$rem
 BASIS = 6-31G*
 GUI = 2
 METHOD = B3LYP
 PRINT_ORBITALS false
 MOLDEN_FORMAT false
$end