$molecule
0 1
 C        -4.53592790440000   -0.98338262410000   -0.00542593280000
 C        -3.78196546640000    0.10959552650000    0.00548849380000
 C        -2.32634679210000    0.15763324230000    0.00228391500000
 C        -1.50170104130000   -0.97245738130000   -0.00171071010000
 C        -0.13164393490000   -0.81440582500000   -0.00423913730000
 C         0.41057875230000    0.47494103600000   -0.00297579430000
 C         1.82929880710000    0.77548127420000   -0.00521030790000
 C         2.84437253500000   -0.07701257590000   -0.00027131720000
 F         2.79306747130000   -1.40334270860000    0.00783611960000
 F         4.11848411490000    0.30593988240000   -0.00242679310000
 C        -0.50373407200000    1.53637243860000    0.00090199800000
 N        -1.80667545570000    1.38830484980000    0.00381925040000
 H        -5.61039785760000   -0.91937568190000   -0.00226444760000
 H        -4.12440835320000   -1.97849847840000   -0.01839856450000
 H        -4.23947490570000    1.08945218000000    0.01696559830000
 H        -1.92850735140000   -1.96236866560000   -0.00232862470000
 H         0.50731619430000   -1.68329015060000   -0.00740432700000
 H         2.10016175620000    1.82148519450000   -0.01070298230000
 H        -0.15182053710000    2.56093428690000    0.00207224930000
$end

$rem
 BASIS = 6-31G*
 GUI = 2
 METHOD = B3LYP
 PRINT_ORBITALS false
 MOLDEN_FORMAT false
$end