$molecule
0 1
 C         3.08357947420000   -2.47537117520000   -0.01431983020000
 C         2.64686057960000   -1.21817685260000    0.00568725220000
 C         1.25664746760000   -0.85339969980000    0.02188328370000
 S        -0.00343328600000   -2.04851755120000    0.00046802710000
 C        -1.25976825950000   -0.84955675470000   -0.02106818710000
 C        -2.65103763360000   -1.21020643310000   -0.00510019380000
 C        -3.09145381030000   -2.46614226830000    0.01231045830000
 C        -0.71010886600000    0.41670818740000   -0.01023619580000
 N        -1.48500277630000    1.61926266330000    0.14195028700000
 O        -2.55440915750000    1.67724667250000   -0.41930469910000
 O        -1.01951678750000    2.46242618980000    0.87225797910000
 C         0.71093409090000    0.41444805190000    0.01093827390000
 N         1.49028707490000    1.61428696940000   -0.14189984000000
 O         2.55743223600000    1.67050440520000    0.42368213130000
 O         1.03081601390000    2.45608297610000   -0.87747922400000
 H         4.13458700150000   -2.70053552030000   -0.01987552860000
 H         2.40468093430000   -3.31326809510000   -0.02089129910000
 H         3.34269002000000   -0.39058888600000    0.03189582440000
 H        -3.34441601030000   -0.38047318110000   -0.02894196080000
 H        -2.41502757970000   -3.30603542690000    0.01652335100000
 H        -4.14312297770000   -2.68821297840000    0.01796544940000
$end

$rem
 BASIS = 6-31G*
 GUI = 2
 METHOD = B3LYP
 PRINT_ORBITALS false
 MOLDEN_FORMAT false
$end