$molecule
0 1
 C        -3.73116362420000   -0.62776477150000   -0.01964212920000
 C        -2.85374723910000    0.36869091870000    0.02005167150000
 C        -1.40233638560000    0.25542153080000    0.00981559670000
 C        -0.63148188270000    1.42017179660000    0.00595448220000
 C         0.74519986080000    1.36395759090000   -0.00602052520000
 C         1.41850385500000    0.14022722820000   -0.01044378590000
 C         2.87432285360000    0.13471787570000   -0.02037187970000
 C         3.66750555990000   -0.92990609580000    0.02198327640000
 C         0.64736799840000   -1.02466539510000   -0.00554832920000
 C        -0.72876086370000   -0.96847172980000    0.00398418660000
 H        -4.79117805300000   -0.43997033210000   -0.00873039790000
 H        -3.43840599570000   -1.66258328470000   -0.06627412440000
 H        -3.22265065580000    1.38694073200000    0.06137260340000
 H        -1.12647208130000    2.38162213800000    0.01053154790000
 H         1.31693219940000    2.28185067670000   -0.01004469710000
 H         3.32507959890000    1.11938936450000   -0.06359329600000
 H         3.29128508790000   -1.93727937700000    0.07087654610000
 H         4.73931062180000   -0.82924513190000    0.01117497810000
 H         1.13268132480000   -1.98861681870000   -0.01153513820000
 H        -1.29105382040000   -1.88964894580000    0.00905146630000
$end

$rem
 BASIS = 6-31G*
 GUI = 2
 METHOD = B3LYP
 PRINT_ORBITALS false
 MOLDEN_FORMAT false
$end