$molecule
0 1
 C         2.66659372840000   -1.50323498450000    0.00184399430000
 C         2.41237353150000   -0.19717384680000   -0.00145751270000
 C         1.09165456940000    0.37344646370000   -0.00089657130000
 C         0.70200229740000    1.69510144030000   -0.00062977440000
 C        -0.70199659710000    1.69510650540000    0.00068063860000
 C        -1.09166237780000    0.37345824650000    0.00089656300000
 C        -2.41238149730000   -0.19716779740000    0.00131075440000
 C        -2.66658104510000   -1.50324759370000   -0.00179789220000
 O        -0.00000656680000   -0.42251318460000    0.00004317340000
 H         3.67245653890000   -1.88394688050000    0.00133069530000
 H         1.86903140500000   -2.22621558890000    0.00526432710000
 H         3.21402994400000    0.52833839770000   -0.00457380350000
 H         1.34998559530000    2.54820324780000   -0.00118813500000
 H        -1.34997055080000    2.54821195050000    0.00135879610000
 H        -3.21403356920000    0.52833742910000    0.00414181440000
 H        -1.86899454270000   -2.22620667490000   -0.00484124580000
 H        -3.67243167420000   -1.88399336540000   -0.00158431900000
$end

$rem
 BASIS = 6-31G*
 GUI = 2
 METHOD = B3LYP
 PRINT_ORBITALS false
 MOLDEN_FORMAT false
$end