$molecule
0 1
C           -4.31508283830000        2.33038673570000        0.02794660700000
C           -3.01237063300000        2.33209025510000       -0.22936206130000
C           -2.10342463410000        1.19712055360000       -0.14249057650000
C           -2.51359757540000       -0.09064944850000        0.19915569530000
C           -1.61607493500000       -1.13849158130000        0.24861381370000
C           -0.26598847230000       -0.93809704640000       -0.02397099360000
O            0.66614491060000       -1.92180134690000       -0.05483066930000
C            0.28204160470000       -3.23896939080000        0.25486035220000
C            0.17652840050000        0.36132090340000       -0.33823662380000
C            1.58043128960000        0.65637741300000       -0.61734517150000
C            2.63263813910000        0.15028685300000        0.00287879020000
F            2.65157199060000       -0.68554578710000        1.02929630300000
F            3.88849004280000        0.47776166100000       -0.30945388800000
C           -0.74993295600000        1.39080158120000       -0.41370980420000
H           -4.90366204470000        3.22670317260000       -0.06524752830000
H           -4.84804735290000        1.44910545860000        0.34059761530000
H           -2.54204745220000        3.25840836330000       -0.53640140720000
H           -3.55088418200000       -0.28713788540000        0.41925534030000
H           -1.97888662720000       -2.12263389370000        0.49987883250000
H            1.19162753080000       -3.83220079650000        0.17804905480000
H           -0.46051997960000       -3.61908583360000       -0.45436762870000
H           -0.11099350320000       -3.31320663150000        1.27331338040000
H            1.78650619630000        1.38806204080000       -1.38467387020000
H           -0.39982930250000        2.37959641400000       -0.67453951390000
$end

$rem
BASIS = 6-31G*
GUI = 2
METHOD = B3LYP
PRINT_ORBITALS false
MOLDEN_FORMAT false
$end
