$molecule
0 1
 C           -3.14976384380000        2.32386652410000        1.06709965910000
 C           -3.03978623990000        1.25844208310000        0.28485642340000
 C           -1.86830836050000        0.39133112150000        0.17392142630000
 C           -2.07547841500000       -0.94113131310000       -0.18327489140000
 C           -1.01251211040000       -1.81815184090000       -0.28190393460000
 Cl          -1.30124759170000       -3.46320435390000       -0.72467423640000
 C            0.27976269740000       -1.40284390240000       -0.01761495670000
 C            0.51775602930000       -0.07471907200000        0.32671630670000
 C            1.84934490460000        0.40286379980000        0.68048117100000
 C            3.01121514320000       -0.13023959600000        0.33798364930000
 F            3.22042983990000       -1.18692369420000       -0.43696780400000
 F            4.18468249830000        0.36353026240000        0.72477849710000
 C           -0.55552085770000        0.83178181900000        0.40001208700000
 O           -0.30667276600000        2.15071966420000        0.70432351790000
 C            0.26302927610000        2.92333097030000       -0.34477600120000
 C           -0.71534048730000        3.18268172960000       -1.48426525530000
 H           -4.06131376830000        2.89702373850000        1.10099118330000
 H           -2.34422592090000        2.65235209980000        1.69895520980000
 H           -3.88679673840000        0.94081805220000       -0.31106664660000
 H           -3.07853082430000       -1.28991241610000       -0.37488276890000
 H            1.08977388110000       -2.11110685700000       -0.06532683920000
 H            1.89164931980000        1.28639298510000        1.30147081810000
 H            1.16447760960000        2.43296679620000       -0.73629614990000
 H            0.54908081330000        3.86337657700000        0.13319764270000
 H           -0.99945296850000        2.24650447300000       -1.96045948480000
 H           -0.24750011520000        3.82522036870000       -2.22496622850000
 H           -1.61292508530000        3.66607777330000       -1.10770311030000
$end

$rem
 BASIS = 6-31G*
 GUI = 2
 METHOD = B3LYP
 PRINT_ORBITALS false
 MOLDEN_FORMAT false
$end