$molecule
0 1
 C        -4.17735553420000   -0.48345539880000    0.06225407940000
 C        -3.17692519910000    0.38887759490000    0.02599227730000
 C        -1.75863255080000    0.06541053770000   -0.00632977480000
 C        -1.26187217150000   -1.23604432160000   -0.17013363520000
 N         0.01519548200000   -1.52969171220000   -0.16014839310000
 C         0.91213093290000   -0.55395586120000   -0.01980653160000
 C         2.25837394520000   -0.99919888520000    0.05482009970000
 N         3.32744686300000   -1.40464875580000    0.13900335350000
 C         0.55414387520000    0.80334510760000    0.09646179780000
 C         1.50814597170000    1.90105268350000    0.19699516860000
 C         2.73106609640000    1.91827880740000   -0.31665686370000
 C        -0.81173842220000    1.07879962290000    0.12247191310000
 H        -5.20202984360000   -0.15508746300000    0.08766146690000
 H        -4.02152908300000   -1.54841855430000    0.07415761530000
 H        -3.39693880740000    1.44984096490000    0.03104238690000
 H        -1.92294464810000   -2.07903499670000   -0.31188914220000
 H         1.12676186740000    2.77921217830000    0.70474700880000
 H         3.14137808790000    1.08809791590000   -0.86470861720000
 H         3.36540769560000    2.78172592960000   -0.21206798620000
 H        -1.13850546990000    2.10433450710000    0.23591598650000
$end

$rem
 BASIS = 6-31G*
 GUI = 2
 METHOD = B3LYP
 PRINT_ORBITALS false
 MOLDEN_FORMAT false
$end