$molecule
0 1
 C        -3.21675893970000   -2.70073331430000    0.24592412500000
 C        -2.98131325270000   -1.40962767960000    0.46720124590000
 C        -1.78843014130000   -0.70433024370000    0.08226665050000
 C        -0.67117768210000   -1.14981194280000   -0.57436268800000
 C         0.31324257180000   -0.16332589910000   -0.77730060560000
 C         1.61847003940000   -0.48128372500000   -1.43940528370000
 C         2.43464815230000   -1.49534156970000   -0.62579142840000
 C         2.73444243400000   -1.04191787280000    0.80306642080000
 C         3.67674798600000    0.15352581580000    0.87326863290000
 C        -0.05938509540000    1.06553812790000   -0.27296586460000
 C         0.65884148520000    2.30956694090000   -0.31069830310000
 C         0.26603982970000    3.43542409230000    0.27979782350000
 S        -1.63605388290000    0.98346965360000    0.46322343470000
 H        -4.13427358880000   -3.16385941150000    0.56297094650000
 H        -2.50705356240000   -3.33547097290000   -0.25560313070000
 H        -3.72248307480000   -0.80745878040000    0.97684555800000
 H        -0.55649581530000   -2.16453953370000   -0.91110365110000
 H         2.20461019190000    0.42390032180000   -1.58925864220000
 H         1.41716419270000   -0.91213945550000   -2.42477749030000
 H         3.37491974950000   -1.68614388570000   -1.14865880700000
 H         1.88340654820000   -2.43707386600000   -0.58130334870000
 H         3.18707543690000   -1.87976353650000    1.33914969490000
 H         1.79758010240000   -0.79550378190000    1.30750939240000
 H         4.59237552570000   -0.04855545310000    0.32078827870000
 H         3.94005037440000    0.36305364140000    1.90751045900000
 H         3.21015655480000    1.04383331620000    0.46139630510000
 H         1.58078202980000    2.29954688770000   -0.87733743250000
 H        -0.64682124620000    3.48344847980000    0.85008285100000
 H         0.84357627690000    4.34018632920000    0.21139410930000
$end

$rem
 BASIS = 6-31G*
 GUI = 2
 METHOD = B3LYP
 PRINT_ORBITALS false
 MOLDEN_FORMAT false
$end