$molecule
0 1
 C        -4.12595814620000    2.08469621470000   -0.06994073250000
 C        -2.90830230820000    2.18649234120000    0.45490927120000
 C        -1.89633559130000    1.16807195990000    0.39297789120000
 C        -0.62897090850000    1.23295887710000    0.90176389510000
 C         0.16789765410000    0.08137220850000    0.69120432300000
 C         1.59406209870000    0.11930440780000    1.19650461960000
 C         2.48659296380000   -1.09676782820000    0.93330231670000
 C         2.82944083320000   -1.26658599480000   -0.54520123550000
 C         3.50757985150000   -0.01311327720000   -1.08657738740000
 C         2.61353459500000    1.19836688930000   -0.85013122560000
 C         2.32666773860000    1.35460578280000    0.63892766330000
 C        -0.53742597800000   -0.90223048530000    0.03055495830000
 C        -0.21632250270000   -2.26578576890000   -0.32253546120000
 C        -0.84862159740000   -2.96321821410000   -1.26222197480000
 S        -2.15358258780000   -0.36348083160000   -0.37277456980000
 H        -4.84453781720000    2.88122460800000    0.00670653050000
 H        -4.43699403420000    1.19600438450000   -0.59403951440000
 H        -2.60956310880000    3.08686723980000    0.97755101140000
 H        -0.28248825670000    2.09780932520000    1.44073623370000
 H         1.51852101280000    0.24247819950000    2.28699678570000
 H         2.03162667530000   -2.00155228720000    1.33726437660000
 H         3.41785170240000   -0.94115170950000    1.48622749900000
 H         1.92301701470000   -1.45161994890000   -1.12257509080000
 H         3.48708649100000   -2.13045174100000   -0.66767563870000
 H         3.70897899330000   -0.13080881380000   -2.15325714050000
 H         4.46408881760000    0.13777960820000   -0.57947110760000
 H         1.67232540070000    1.06942117910000   -1.38963358890000
 H         3.09734488250000    2.10163884430000   -1.22833389410000
 H         1.74616930790000    2.26123376720000    0.80744634100000
 H         3.27272991540000    1.46544942240000    1.17508953300000
 H         0.56374446740000   -2.74438154990000    0.24852149750000
 H        -1.63557984780000   -2.53128549990000   -1.85818417770000
 H        -0.59487612800000   -3.98846426760000   -1.46658253020000
$end

$rem
 BASIS = 6-31G*
 GUI = 2
 METHOD = B3LYP
 PRINT_ORBITALS false
 MOLDEN_FORMAT false
$end