$molecule
0 1
 C        -2.71826780350000    1.83170648470000    0.15699661650000
 C        -2.49953134220000    0.54766927560000   -0.09715951540000
 C        -1.21334438270000   -0.14121278100000   -0.06053093540000
 C        -1.19595809050000   -1.53695977380000   -0.10352772620000
 C        -0.00000412370000   -2.22733948840000   -0.05285573090000
 C         1.19595356680000   -1.54014898180000    0.03052494500000
 C         1.21334297420000   -0.14393482420000    0.05381336360000
 C         2.49952814410000    0.54243786970000    0.12309848220000
 C         2.71827921740000    1.83704836930000   -0.07009194980000
 C         0.00000176930000    0.53683881480000    0.01277416180000
 H        -3.70878588260000    2.25105767690000    0.11085619330000
 H        -1.93159155210000    2.51462697240000    0.42880195490000
 H        -3.34183417300000   -0.08821237020000   -0.34296955130000
 H        -2.12903226000000   -2.07893976050000   -0.16647728440000
 H        -0.00000694740000   -3.30760267220000   -0.07850452380000
 H         2.12902603430000   -2.08450833490000    0.06768437090000
 H         3.34180702000000   -0.10434934640000    0.33867700300000
 H         1.93162240440000    2.53203582330000   -0.30942933920000
 H         3.70878777540000    2.25375872530000   -0.00409212630000
 H         0.00000842260000    1.61443834380000    0.03837423230000
$end

$rem
 BASIS = 6-31G*
 GUI = 2
 METHOD = B3LYP
 PRINT_ORBITALS false
 MOLDEN_FORMAT false
$end