$molecule
0 1
 C         5.57257161210000   -0.32336245520000   -0.28443306910000
 C         4.35457014780000   -0.25761469850000   -0.81820248030000
 C         3.12564210850000   -0.18378983690000   -0.07679142860000
 C         2.90857913940000   -0.16681764740000    1.28049627750000
 C         1.55810808640000   -0.08685239070000    1.63140425800000
 C         0.71160593610000   -0.04079928940000    0.54532268540000
 C        -0.71145177400000    0.04291877490000    0.54534989650000
 C        -1.55744033400000    0.09686356460000    1.63148203500000
 C        -2.90802687550000    0.17526332450000    1.28063782850000
 C        -3.12567879560000    0.18311989140000   -0.07664399300000
 C        -4.35483088940000    0.25306191280000   -0.81804175460000
 C        -5.57251005300000    0.32486074910000   -0.28449422440000
 S        -1.61661913570000    0.09138975910000   -0.93622189810000
 S         1.61614103460000   -0.09851560010000   -0.93625944090000
 H         6.45088691790000   -0.37639772950000   -0.90287531270000
 H         5.73323182780000   -0.32624731110000    0.77959364790000
 H         4.23896065330000   -0.25688365880000   -1.89444375830000
 H         3.70279319250000   -0.21118755330000    2.00344778660000
 H         1.20874087790000   -0.06323030160000    2.64770537750000
 H        -1.20762196420000    0.07997066350000    2.64778408890000
 H        -3.70193425350000    0.22485154010000    2.00362016080000
 H        -4.23966842150000    0.24418513980000   -1.89421217690000
 H        -5.73287266340000    0.33630303130000    0.77950247690000
 H        -6.45087345140000    0.37447833150000   -0.90312912850000
$end

$rem
 BASIS = 6-31G*
 GUI = 2
 METHOD = B3LYP
 PRINT_ORBITALS false
 MOLDEN_FORMAT false
$end