$molecule
0 1
 C        -5.84870562200000    0.79178183480000   -0.22845322720000
 C        -5.00372999040000   -0.16581241060000    0.13588467700000
 C        -3.54910303940000   -0.11447290770000    0.08290752350000
 C        -2.83796742460000    1.00677485570000   -0.34873729020000
 C        -1.45976153020000    1.00537250360000   -0.37719686770000
 C        -0.73333865390000   -0.11812761310000    0.01684472370000
 C         0.73334917860000   -0.11801511240000   -0.01848852600000
 C         1.45945731240000    1.00585253550000    0.37508492530000
 C         2.83767678260000    1.00731732960000    0.34747559380000
 C         3.54914549270000   -0.11424545730000   -0.08279932740000
 C         5.00382193380000   -0.16566560570000   -0.13434080240000
 C         5.84848471210000    0.79151237730000    0.23184095420000
 C         2.81783344050000   -1.23549617760000   -0.48108558110000
 C         1.43947668130000   -1.24109243890000   -0.44636140020000
 C        -1.43914350660000   -1.24103248350000    0.44570452590000
 C        -2.81747708130000   -1.23549993010000    0.48125088640000
 H        -6.91395386580000    0.65640410440000   -0.15158634970000
 H        -5.52341717630000    1.74184786360000   -0.61618541340000
 H        -5.40471248550000   -1.09862895550000    0.51495838280000
 H        -3.36880077510000    1.89080932300000   -0.66692132330000
 H        -0.93288174380000    1.87970780920000   -0.73162811060000
 H         0.93230223260000    1.88042516660000    0.72850843690000
 H         3.36826263940000    1.89164209060000    0.66525662090000
 H         5.40514238710000   -1.09814386670000   -0.51382329660000
 H         5.52280680350000    1.74129948960000    0.61998863810000
 H         6.91382115410000    0.65604316860000    0.15623757750000
 H         3.34504689730000   -2.11513741370000   -0.82412192010000
 H         0.89879751630000   -2.11659964180000   -0.77597640220000
 H        -0.89821632560000   -2.11627151440000    0.77562139420000
 H        -3.34441993260000   -2.11492382700000    0.82526330360000
$end

$rem
 BASIS = 6-31G*
 GUI = 2
 METHOD = B3LYP
 PRINT_ORBITALS false
 MOLDEN_FORMAT false
$end