$molecule
0 1
 C           -1.33614878370000       -3.82200048170000        0.32975882780000
 C           -1.31055205340000       -2.57831307810000       -0.13143283430000
 C           -0.16500591960000       -1.67570293470000       -0.02608776650000
 C            1.13375541310000       -2.18131564210000       -0.09580781670000
 C            2.23348625580000       -1.35657590240000       -0.05517111950000
 C            2.06954130110000        0.02619609340000        0.05983187600000
 O            3.21059091860000        0.76217466030000        0.08708885750000
 C            3.10954288110000        2.16441884590000        0.16782049560000
 C            0.78639783140000        0.54806011180000        0.14130489110000
 C           -0.33030463290000       -0.28609255940000        0.09669802320000
 C           -1.67110832950000        0.27445280650000        0.23724996770000
 C           -2.06053896360000        1.49619186660000       -0.08985902190000
 F           -1.33269848000000        2.46292819140000       -0.64145398710000
 F           -3.30478691780000        1.94162189810000        0.08311462670000
 H           -2.20173929370000       -4.45047633900000        0.20909925290000
 H           -0.50365583010000       -4.25424563180000        0.85893673030000
 H           -2.18255253360000       -2.18286349120000       -0.63590330140000
 H            1.27482354640000       -3.24497643880000       -0.21065583490000
 H            3.23428128020000       -1.75303494800000       -0.11717509420000
 H            4.13295043360000        2.53461607130000        0.13630127060000
 H            2.64048750340000        2.48009204000000        1.10518965720000
 H            2.54855437470000        2.57627405070000       -0.67670092750000
 H            0.63973515520000        1.60793479510000        0.26181894350000
 H           -2.43788560500000       -0.36190994770000        0.65212473270000
$end

$rem
 BASIS = 6-31G*
 GUI = 2
 METHOD = B3LYP
 PRINT_ORBITALS false
 MOLDEN_FORMAT false
$end