$molecule
0 1
 C        -4.55277435930000   -2.12993075520000    0.66222911850000
 C        -3.40214865590000   -2.19815952120000   -0.00191612010000
 C        -2.47568486210000   -1.11248081550000   -0.16192268020000
 C        -1.28244438470000   -1.13691861550000   -0.83738505750000
 C        -0.58900114540000    0.08706144160000   -0.83116076480000
 C         0.75064849150000    0.26417168650000   -1.47489215380000
 C         1.87874801810000    0.10876275450000   -0.44756221020000
 C         3.25148002370000    0.28386067400000   -1.09200935200000
 C         4.40062331410000    0.25686406970000   -0.08401668410000
 C         4.61150943590000   -1.10986171660000    0.56399347540000
 C         5.83368562230000   -1.11424898630000    1.47429483820000
 C        -1.25951786010000    1.06633893070000   -0.12878778180000
 C        -0.85294531240000    2.42602695050000    0.09241049950000
 C        -1.51930205050000    3.31193232360000    0.82862623790000
 S        -2.76148892730000    0.46205791540000    0.51345072660000
 H        -5.20827302650000   -2.97817435280000    0.74837906660000
 H        -4.87036028650000   -1.21759248680000    1.13956392610000
 H        -3.09750039060000   -3.12289322050000   -0.47640156470000
 H        -0.91384823280000   -2.01861153690000   -1.33327793410000
 H         0.81900538190000    1.24837596710000   -1.94359577150000
 H         0.87262756550000   -0.48807114210000   -2.25707586050000
 H         1.80241404670000   -0.87936747540000    0.00906254950000
 H         1.74887320710000    0.85138770320000    0.34318752720000
 H         3.27133006170000    1.24265667380000   -1.61719470200000
 H         3.40554489180000   -0.50136472610000   -1.83625598700000
 H         4.21428801260000    1.00019351290000    0.69489422050000
 H         5.32134613240000    0.54349831140000   -0.59878775260000
 H         4.73916830980000   -1.86264598570000   -0.21755676260000
 H         3.73134111800000   -1.38136398540000    1.14897327440000
 H         6.73183758770000   -0.87125221470000    0.91027103180000
 H         5.96914524120000   -2.09230790350000    1.93023543490000
 H         5.71980180690000   -0.37875701030000    2.26783504800000
 H         0.07184145960000    2.71402586360000   -0.39006801190000
 H        -2.43922869550000    3.05134137510000    1.32538330780000
 H        -1.16597085360000    4.31957585120000    0.95783863330000
$end

$rem
 BASIS = 6-31G*
 GUI = 2
 METHOD = B3LYP
 PRINT_ORBITALS false
 MOLDEN_FORMAT false
$end