$molecule
0 1
 C         4.23089067250000   -0.09107600270000    0.00973482090000
 C         3.11074763650000    0.58775101630000    0.22754899380000
 C         1.74793507190000    0.09788427520000    0.06739373900000
 C         1.44347721860000   -1.17614760270000   -0.41203723340000
 C         0.13071233560000   -1.57529290130000   -0.53921427900000
 C        -0.92499040640000   -0.73873880870000   -0.18129035030000
 C        -2.29352253920000   -1.26091315540000   -0.33041516020000
 C        -3.15400363570000   -1.42384514790000    0.66062956050000
 C        -0.63948910610000    0.54741395430000    0.28754652910000
 C        -1.72563481120000    1.54740423750000    0.57639115340000
 C        -2.20646120850000    2.19143996520000   -0.72523560640000
 C         0.68541389080000    0.93900189200000    0.39614289810000
 H         5.19686423060000    0.36043305280000    0.15872948150000
 H         4.23759820630000   -1.11547549710000   -0.32112853020000
 H         3.18076909330000    1.61518271690000    0.56543591340000
 H         2.23311166680000   -1.85541010820000   -0.69280983180000
 H        -0.09395854490000   -2.56510461390000   -0.91226255650000
 H        -2.55718958450000   -1.57952543260000   -1.33282623640000
 H        -2.90763733460000   -1.16177652960000    1.67677281680000
 H        -4.13376102770000   -1.84171427990000    0.50026581260000
 H        -1.33879397480000    2.32247476480000    1.24096576270000
 H        -2.57176024990000    1.06875443050000    1.06733240110000
 H        -1.37754451520000    2.67258610170000   -1.24015039920000
 H        -2.97036840730000    2.93831142540000   -0.52115225350000
 H        -2.62803636660000    1.43563257690000   -1.38416918670000
 H         0.90348461140000    1.93752507110000    0.75174853610000
$end

$rem
 BASIS = 6-31G*
 GUI = 2
 METHOD = B3LYP
 PRINT_ORBITALS false
 MOLDEN_FORMAT false
$end