$molecule
0 1
 C        -3.94381009480000   -0.05554111360000    0.01489513180000
 C        -2.84390090860000    0.69011648910000    0.02430256590000
 C        -1.45957213360000    0.23982867770000    0.00865258300000
 C        -0.45044994810000    1.20983812250000    0.00134668340000
 C         0.89621715830000    0.88925637340000   -0.01532099980000
 O         1.89557528960000    1.81529838180000   -0.02131039250000
 C         1.56050546220000    3.18083552550000   -0.02366647490000
 C         1.29773953790000   -0.46582300670000   -0.02148287950000
 C         2.71527878540000   -0.79223495550000   -0.04228378300000
 C         3.24855417720000   -2.00211391030000    0.08795597670000
 C         0.29970121210000   -1.43369164460000   -0.01592991330000
 C        -1.03464896860000   -1.08868999230000   -0.00111471320000
 F        -1.92717989010000   -2.10664273430000    0.00197982330000
 H        -4.91748101050000    0.40496190990000    0.02810961210000
 H        -3.92971468320000   -1.12951092260000   -0.00627928080000
 H        -2.94849395900000    1.76889843260000    0.04451983360000
 H        -0.75918611470000    2.24368304510000    0.00819930760000
 H         0.98299399800000    3.45339825320000   -0.91293745900000
 H         2.50997365670000    3.71412719920000   -0.03578830740000
 H         1.00214249200000    3.46089958930000    0.87538838990000
 H         3.36376387450000    0.06315382730000   -0.16824032830000
 H         2.65933925110000   -2.89112622910000    0.23333433270000
 H         4.31489787830000   -2.14503744000000    0.05873926660000
 H         0.55414285520000   -2.48080253760000   -0.03089019550000
$end

$rem
 BASIS = 6-31G*
 GUI = 2
 METHOD = B3LYP
 PRINT_ORBITALS false
 MOLDEN_FORMAT false
$end