$molecule
0 1
 C         3.92736659310000   -0.64944540520000    0.03936299480000
 C         2.98595463030000    0.28657912990000    0.07615834430000
 C         1.54596792730000    0.07927395750000    0.01177664500000
 C         0.95615680190000   -1.18171397450000   -0.08118363540000
 C        -0.41406862490000   -1.30883653900000   -0.13941934020000
 C        -1.25436202820000   -0.19546932920000   -0.10828411920000
 C        -2.70405064270000   -0.35842114890000   -0.18235778440000
 C        -3.37714109830000   -1.40014184880000    0.28886557310000
 C        -0.67543926390000    1.07971039470000   -0.01911747080000
 C        -1.52545076830000    2.31479789930000    0.03369182690000
 C         0.70235366530000    1.19060015480000    0.04204969790000
 H         4.97203260380000   -0.39474352650000    0.09359874520000
 H         3.70391530680000   -1.69890234710000   -0.04632888750000
 H         3.28606670940000    1.32453553840000    0.16127821480000
 H         1.57126778250000   -2.06750261690000   -0.11178840170000
 H        -0.85193329910000   -2.29170639850000   -0.23239228540000
 H        -3.24739362940000    0.44999223640000   -0.65376568510000
 H        -2.89132085900000   -2.21515040160000    0.79879653340000
 H        -4.44797804720000   -1.46839263830000    0.19830209880000
 H        -2.25777779630000    2.24515399110000    0.83667260480000
 H        -2.06474812000000    2.45083228370000   -0.90406450940000
 H        -0.90957812640000    3.19504067390000    0.20154074540000
 H         1.14390996310000    2.17574869730000    0.11644058410000
$end

$rem
 BASIS = 6-31G*
 GUI = 2
 METHOD = B3LYP
 PRINT_ORBITALS false
 MOLDEN_FORMAT false
$end