$molecule
0 1
 C         1.39489438380000    1.79791230010000   -1.81108446230000
 C         2.21672854040000    1.07921217390000   -1.05687812500000
 C         1.85352263390000   -0.09946742330000   -0.28928322360000
 C         2.79556367840000   -1.12217414750000    0.01295875010000
 C         2.25725687470000   -2.16677436360000    0.68305610110000
 S         0.58030842580000   -1.94529530270000    0.99680515470000
 C         0.59710817770000   -0.40472102400000    0.18225732130000
 C        -0.59705116520000    0.40490518600000    0.18234757240000
 S        -0.58065276700000    1.94575354200000    0.99647126700000
 C        -2.25782016880000    2.16634146810000    0.68317968360000
 C        -2.79593487490000    1.12128617910000    0.01361347630000
 C        -1.85350457260000    0.09896000780000   -0.28854885930000
 C        -2.21593433700000   -1.08057483370000   -1.05531784900000
 C        -1.39410265530000   -1.79611833410000   -1.81244820110000
 H         1.74476613240000    2.65247925950000   -2.36392481500000
 H         0.35107634580000    1.55442286330000   -1.91502486930000
 H         3.26843184790000    1.33406429540000   -1.01407745830000
 H         3.82886242790000   -1.07001291450000   -0.28163313480000
 H         2.73885915090000   -3.06313243970000    1.02007382120000
 H        -2.73964452960000    3.06268880300000    1.01991014730000
 H        -3.82926904490000    1.06859678580000   -0.28073585300000
 H        -3.26664658970000   -1.33883363820000   -1.00903111300000
 H        -0.35146358030000   -1.54883712460000   -1.91940912110000
 H        -1.74267688650000   -2.65155899420000   -2.36474038910000
$end

$rem
 BASIS = 6-31G*
 GUI = 2
 METHOD = B3LYP
 PRINT_ORBITALS false
 MOLDEN_FORMAT false
$end