$molecule
0 1
 C           -4.73053677330000       -1.02431611960000       -0.06249754840000
 C           -3.83298131040000       -0.06558121730000       -0.25806067760000
 C           -2.40725396620000       -0.13780524830000        0.03366191810000
 C           -1.81859737750000       -1.20910828780000        0.70842694730000
 C           -0.46348304480000       -1.21708924440000        0.94729181450000
 C            0.36158394580000       -0.17874464690000        0.50939566800000
 C            1.79281332200000       -0.30134156760000        0.79435665670000
 C            2.79034625370000       -0.08259311220000       -0.04383909070000
 F            2.70974060270000        0.28579907930000       -1.31685819620000
 F            4.07467713240000       -0.23950258300000        0.28027800140000
 C           -0.21406008130000        0.92125391590000       -0.13675191650000
 C            0.58564815970000        2.11525829890000       -0.55825508060000
 C           -1.58339437690000        0.91514317860000       -0.35856300890000
 H           -5.76694632460000       -0.87995427530000       -0.31509447060000
 H           -4.47655340030000       -1.98657688420000        0.34766517050000
 H           -4.15654852920000        0.87474923660000       -0.68798690770000
 H           -2.42290979230000       -2.03182018230000        1.05593937480000
 H           -0.01726178020000       -2.05126904630000        1.46961447930000
 H            2.06898410450000       -0.66912003280000        1.77241417810000
 H            1.42335632230000        2.28651751510000        0.11451677310000
 H           -0.04208438720000        3.00336620960000       -0.56895786610000
 H            0.98252843130000        1.97283525420000       -1.56283200520000
 H           -2.02790529510000        1.76566888890000       -0.85729562420000
$end

$rem
 BASIS = 6-31G*
 GUI = 2
 METHOD = B3LYP
 PRINT_ORBITALS false
 MOLDEN_FORMAT false
$end