$molecule
0 1
C           -0.03109532340000        4.86257797740000        0.13248136160000
C           -0.93640252870000        3.89247291750000        0.10412730840000
C           -0.66793629740000        2.45818580140000        0.09606346930000
C           -1.74045700830000        1.57124440250000        0.02479828650000
C           -1.55890212120000        0.18790577160000        0.00985813390000
C           -2.74472350550000       -0.65281707210000       -0.07020271580000
C           -2.81524828640000       -1.97442709480000       -0.12660921420000
F           -1.81913555630000       -2.84948509610000       -0.12447307160000
F           -3.96859337300000       -2.63568289440000       -0.19950057640000
C           -0.26285953830000       -0.32113791370000        0.07316260040000
C            0.81621072660000        0.55196631950000        0.14801780230000
C            2.21622871070000        0.05374500060000        0.21857948180000
O            3.18353268970000        0.77574557760000        0.24885001360000
O            2.28033770660000       -1.28060310760000        0.25834235990000
C            3.58098425630000       -1.86577627630000        0.31138190630000
C            4.19587626800000       -1.98013279500000       -1.07616548790000
C            0.61845100160000        1.92687028950000        0.15756514870000
H           -0.32377510270000        5.89842866300000        0.13509780600000
H            1.02771448330000        4.67152857810000        0.15268258920000
H           -1.98752213580000        4.15326080790000        0.08121152470000
H           -2.74521720250000        1.96782705350000       -0.02260543310000
H           -3.69723382750000       -0.14292292320000       -0.08928460340000
H           -0.07625561680000       -1.38112632980000        0.06696717660000
H            3.42953838320000       -2.85063308270000        0.75804039290000
H            4.21879129980000       -1.25455286100000        0.95860971260000
H            3.53933602210000       -2.54601951680000       -1.73279237330000
H            5.15468709250000       -2.48604780020000       -1.00896848970000
H            4.34887337020000       -0.98920515780000       -1.49665567960000
H            1.48754268120000        2.56228797740000        0.21682296350000
$end

$rem
BASIS = 6-31G*
GUI = 2
METHOD = B3LYP
PRINT_ORBITALS false
MOLDEN_FORMAT false
$end
