$molecule
0 1
 C         5.89871814240000   -0.18783328520000   -0.47289794740000
 C         4.99304219830000    0.23026389710000    0.40344593240000
 C         3.54423082450000    0.19964619040000    0.25113166890000
 C         2.74828725870000    0.75776329900000    1.25374503350000
 C         1.37277084800000    0.74226241280000    1.14672534680000
 C         0.73606317970000    0.18055144440000    0.04503805300000
 C        -0.73592762630000    0.18105574880000   -0.04451527190000
 C        -1.37227788730000    0.74329950180000   -1.14613565800000
 C        -2.74779397370000    0.75996290260000   -1.25300290660000
 C        -3.54411707050000    0.20204457160000   -0.25056951970000
 C        -4.99288446890000    0.23343241410000   -0.40309430730000
 C        -5.89881948440000   -0.19395088530000    0.46849105850000
 C        -2.91168220180000   -0.36781556980000    0.84986116030000
 C        -1.52626386020000   -0.38293060620000    0.97457078440000
 N        -0.94846893360000   -0.91619774890000    2.10969223560000
 C         1.52602047280000   -0.38409988480000   -0.97397331790000
 N         0.94785334210000   -0.91726346020000   -2.10896972950000
 C         2.91145190630000   -0.36985011790000   -0.84927907950000
 H         6.95281841680000   -0.11900424090000   -0.26464925710000
 H         5.63640646140000   -0.60849445990000   -1.42844856890000
 H         5.33292309380000    0.65152526110000    1.34235285480000
 H         3.21430938140000    1.20818333870000    2.11805559280000
 H         0.76671474690000    1.18853974560000    1.92194726790000
 H        -0.76593637650000    1.18917555380000   -1.92136771870000
 H        -3.21351042060000    1.21078825840000   -2.11726964300000
 H        -5.33253294210000    0.66307041810000   -1.33828673920000
 H        -5.63690081900000   -0.62427844400000    1.41983615730000
 H        -6.95283566890000   -0.12381718650000    0.26024439550000
 H        -3.49793120970000   -0.81650629050000    1.63810940170000
 H        -1.51765177270000   -1.55773580180000    2.63715138490000
 H         0.02512631880000   -1.16668302640000    2.03851572900000
 H        -0.02600173100000   -1.16671502680000   -2.03768957940000
 H         1.51636759920000   -1.55986422780000   -2.63588100690000
 H         3.49743868610000   -0.81948370940000   -1.63719138960000
$end

$rem
 BASIS = 6-31G*
 GUI = 2
 METHOD = B3LYP
 PRINT_ORBITALS false
 MOLDEN_FORMAT false
$end