$molecule
0 1
 C         6.94243854150000    0.38167216090000    0.83581289270000
 C         6.16624088540000   -0.01042307930000   -0.16869154010000
 C         4.71197588420000   -0.05315560820000   -0.18339857030000
 C         4.05751143500000   -0.49144526750000   -1.33761050570000
 C         2.68343660930000   -0.54986026770000   -1.39953489570000
 C         1.89061360150000   -0.16600800080000   -0.31235736120000
 C         0.45017399930000   -0.24102510170000   -0.43547978580000
 C        -0.45014352720000    0.22848928150000    0.44289275090000
 C        -1.89058317390000    0.16077896570000    0.31537682100000
 C        -2.54632194850000   -0.56114152480000   -0.68793127080000
 C        -3.92035512140000   -0.59087260370000   -0.76388926310000
 C        -4.71215869540000    0.09993907690000    0.15740178090000
 C        -6.16661745590000    0.10130541490000    0.11843654460000
 C        -6.94172277040000   -0.54941938150000   -0.74238013930000
 C        -4.05917020310000    0.81899736220000    1.16197343210000
 C        -2.68499647030000    0.84548118780000    1.24164697900000
 C         2.54781149590000    0.26715045100000    0.84445036520000
 C         3.92182363220000    0.32128700000000    0.90676090590000
 H         8.01534605130000    0.37744931600000    0.74761329690000
 H         6.55042824370000    0.72051743360000    1.77931568850000
 H         6.63282231340000   -0.33846950730000   -1.09028783720000
 H         4.64369862820000   -0.79068588490000   -2.19566865800000
 H         2.20431049920000   -0.89295977890000   -2.30621946900000
 H         0.10529153500000   -0.70965053140000   -1.34808816590000
 H        -0.10535850680000    0.73178915830000    1.33690357530000
 H        -1.97098568270000   -1.11494562870000   -1.41410830800000
 H        -4.38908430500000   -1.16019578320000   -1.55187892910000
 H        -6.63432702480000    0.70489410490000    0.88758378020000
 H        -6.54850536350000   -1.16952108900000   -1.52950608620000
 H        -8.01491445250000   -0.48442392230000   -0.68787913040000
 H        -4.64661757750000    1.36151053680000    1.88999088710000
 H        -2.20711303480000    1.41004556220000    2.03047719220000
 H         1.97364607510000    0.55655226390000    1.71143797530000
 H         4.39187838320000    0.65806989810000    1.81802234210000
$end

$rem
 BASIS = 6-31G*
 GUI = 2
 METHOD = B3LYP
 PRINT_ORBITALS false
 MOLDEN_FORMAT false
$end