$molecule
0 1
 C        -4.05573085860000   -0.17646924700000    0.10154745790000
 C        -2.94913493620000   -0.89318920150000   -0.05036383870000
 C        -1.57767049970000   -0.39672322090000   -0.03351691610000
 C        -0.51550920710000   -1.33541134560000   -0.02124766390000
 C         0.80429782300000   -0.95059918630000   -0.00038158620000
 C         1.94493347070000   -1.85342722950000    0.01687691640000
 C         1.89766056760000   -3.18042663790000    0.02678693670000
 C         1.07677712520000    0.43845613950000    0.00141550020000
 N         2.23210468200000    1.07644940780000    0.01448710000000
 C         1.92786541760000    2.38865149360000    0.00367173460000
 C         0.56890963700000    2.58416089760000   -0.01713057340000
 N         0.01386153000000    1.34150309210000   -0.01782652300000
 C        -1.27606316980000    0.94245960540000   -0.03469446540000
 H        -5.02697426820000   -0.63915671180000    0.07586271490000
 H        -4.04672251230000    0.88779391800000    0.26232134750000
 H        -3.03335273150000   -1.96329149070000   -0.19166530520000
 H        -0.76710983970000   -2.38429732620000   -0.02499186840000
 H         2.89615520700000   -1.33965176780000    0.02292494040000
 H         0.97339752900000   -3.73350735270000    0.02265546100000
 H         2.79818734820000   -3.76936754730000    0.04008686360000
 H         2.70296057650000    3.12975899660000    0.01102246860000
 H        -0.01950403200000    3.47834255930000   -0.03007040180000
 H        -2.02412435520000    1.71926580540000   -0.05788560510000
$end

$rem
 BASIS = 6-31G*
 GUI = 2
 METHOD = B3LYP
 PRINT_ORBITALS false
 MOLDEN_FORMAT false
$end