$molecule
0 1
 C        -3.76812032030000   -0.04267954600000    0.31309747660000
 C        -2.91584070360000    0.80932470420000   -0.24202354980000
 C        -1.46272588020000    0.75242432300000   -0.14247269920000
 C        -0.74116551300000    1.93886337950000   -0.10080072940000
 C         0.63869935140000    1.96625264880000    0.04877443750000
 C         1.39980802530000    0.80459484390000    0.11443022930000
 C         2.85033807060000    0.89391676180000    0.22464242340000
 C         3.73420422020000    0.04197792550000   -0.28195284950000
 C         0.68480357020000   -0.39885515320000    0.05815252060000
 N         1.13252488190000   -1.68575433320000    0.12370731870000
 C         0.06909053970000   -2.53660448830000    0.02664437180000
 C        -1.08111117570000   -1.82303306460000   -0.10382403570000
 C        -0.72726372010000   -0.44419952750000   -0.06603746200000
 H        -4.83339084920000    0.08176198580000    0.21284343970000
 H        -3.43816468920000   -0.87556426120000    0.90877407270000
 H        -3.30042233230000    1.66785596910000   -0.78083988450000
 H        -1.27611877250000    2.87642112260000   -0.16034123250000
 H         1.14318879080000    2.92116408510000    0.09112771050000
 H         3.20982358300000    1.77704473490000    0.73990359710000
 H         3.44677537540000   -0.81379987290000   -0.86986497210000
 H         4.79344733340000    0.19883340990000   -0.16697098840000
 H         2.08581005310000   -1.95691031130000    0.29119596870000
 H         0.21470655950000   -3.59989417410000    0.05171640400000
 H        -2.06254335430000   -2.23079727750000   -0.23284110470000
$end

$rem
 BASIS = 6-31G*
 GUI = 2
 METHOD = B3LYP
 PRINT_ORBITALS false
 MOLDEN_FORMAT false
$end