$molecule
0 1
 C        -3.99910922380000   -0.75530056360000    0.00602369710000
 C        -3.03955695220000    0.16275373160000   -0.02068321190000
 C        -1.60429217220000   -0.07982493680000   -0.00622298320000
 C        -1.03629833510000   -1.35560009790000    0.01780225800000
 C         0.33027010830000   -1.51994253250000    0.03202780460000
 C         1.21993482250000   -0.43871750080000    0.01995035510000
 C         2.64967601050000   -0.71152450920000    0.03397411930000
 C         3.64784878630000    0.16154154530000   -0.05113991230000
 C         0.63009555820000    0.82786947960000   -0.00251974090000
 F         1.39156335010000    1.94505936800000   -0.00707696010000
 C        -0.73589186700000    1.01168846220000   -0.01533297610000
 H        -5.03858531920000   -0.47640118970000   -0.00730086440000
 H        -3.79628795780000   -1.81170357380000    0.04289254710000
 H        -3.31706300900000    1.20912249580000   -0.05529639670000
 H        -1.67045396520000   -2.22771301340000    0.02528193180000
 H         0.74130873290000   -2.51928270300000    0.05074415690000
 H         2.88568205160000   -1.76610958770000    0.11817447060000
 H         3.50078770020000    1.22194106790000   -0.14348903400000
 H         4.67138484430000   -0.17352899600000   -0.03180160470000
 H        -1.12022721130000    2.02074147430000   -0.03120706560000
$end

$rem
 BASIS = 6-31G*
 GUI = 2
 METHOD = B3LYP
 PRINT_ORBITALS false
 MOLDEN_FORMAT false
$end