$molecule
0 1
 C         3.15021728650000   -2.56928925770000    0.36703966350000
 C         1.99664366010000   -2.33603719860000   -0.24817787470000
 C         1.18045930380000   -1.12742814790000   -0.13649058660000
 C        -0.20465211050000   -1.28750140100000   -0.13133940120000
 C        -1.07666684150000   -0.22003639280000    0.00028773400000
 C        -2.58975582850000   -0.37500341440000    0.01959293320000
 C        -3.03446672770000   -1.83387403460000   -0.11401073130000
 C        -3.13624865410000    0.17050156640000    1.34622814110000
 C        -3.18691960920000    0.41671574200000   -1.15230440590000
 C        -0.51473756490000    1.04569424600000    0.12263883990000
 C         0.85604609820000    1.25842160580000    0.09350244610000
 C         1.39250540530000    2.61039329370000    0.25507674590000
 C         0.81722323870000    3.71777636450000   -0.19455815880000
 C         1.72796541320000    0.16298840660000   -0.05662092900000
 N         3.09394400580000    0.36927429320000   -0.12821565840000
 H         3.67207888590000   -3.50382733780000    0.24235262590000
 H         3.59225000940000   -1.86392735760000    1.05018800050000
 H         1.56428280520000   -3.11604298480000   -0.86533517240000
 H        -0.58040206320000   -2.29474743410000   -0.21635780060000
 H        -2.65488931990000   -2.43460205330000    0.70931971150000
 H        -2.69518302240000   -2.26201969560000   -1.05444918770000
 H        -4.12146450320000   -1.88529037090000   -0.09450334300000
 H        -2.69744243220000   -0.36912308660000    2.18292409140000
 H        -4.21711596380000    0.05007969480000    1.38539719120000
 H        -2.90725522550000    1.22581131180000    1.46511765920000
 H        -2.79181325180000    0.04599407210000   -2.09601385110000
 H        -2.94873193040000    1.47399189260000   -1.07576543820000
 H        -4.26991261100000    0.31104990630000   -1.16562768990000
 H        -1.14956851690000    1.90713724860000    0.26064679210000
 H         2.32550961550000    2.68260360000000    0.80166365170000
 H        -0.09871092430000    3.69671493260000   -0.76124293450000
 H         1.24720235050000    4.68998554440000   -0.02231369530000
 H         3.37285568540000    1.27784409460000   -0.46312557070000
 H         3.61264508430000   -0.39374856950000   -0.53723979930000
$end

$rem
 BASIS = 6-31G*
 GUI = 2
 METHOD = B3LYP
 PRINT_ORBITALS false
 MOLDEN_FORMAT false
$end