$molecule
0 1
 C        -2.76928696100000    0.89602194400000   -0.35348117730000
 C        -2.19835130190000   -0.13957984750000    0.24582647510000
 C        -0.79515775630000   -0.50027854660000    0.16461922680000
 N        -0.47805292690000   -1.78365979620000    0.25294371070000
 N         0.84458646520000   -1.86003840600000    0.05070789480000
 C         1.39822433490000   -0.64549467560000   -0.15934985470000
 N         2.75830049990000   -0.47067130010000   -0.29867507480000
 C         0.36741597710000    0.28788999950000   -0.08531025060000
 C         0.56405625130000    1.72021542560000   -0.17546131790000
 C        -0.14915110800000    2.64845588840000    0.44857124070000
 H        -3.82883091010000    1.07271587750000   -0.27777801090000
 H        -2.20491692560000    1.59881494980000   -0.94220793750000
 H        -2.79594328760000   -0.85543859800000    0.79474774580000
 H         1.31001702210000   -2.75161473650000    0.10061668780000
 H         3.25644085190000   -1.25934699070000   -0.68403691860000
 H         3.01511924960000    0.40684801100000   -0.72530454960000
 H         1.41333018250000    2.02400711090000   -0.78117334160000
 H        -0.97743041430000    2.39309930790000    1.08607710610000
 H         0.07583026630000    3.69598454290000    0.34203031010000
$end

$rem
 BASIS = 6-31G*
 GUI = 2
 METHOD = B3LYP
 PRINT_ORBITALS false
 MOLDEN_FORMAT false
$end