$molecule
0 1
 C        -4.09991259290000    1.72976131540000    0.22530922350000
 C        -3.39859424310000    0.76461456900000   -0.35396916580000
 C        -1.96930523460000    0.53370625110000   -0.14962182580000
 C        -1.11450784390000    1.62587893950000    0.01451451470000
 C         0.25073518790000    1.45761562030000    0.13562373940000
 C         0.77250328630000    0.17939765850000    0.06962419160000
 S         2.54653883650000   -0.05339960020000    0.15105612720000
 C         3.05966060710000    0.11536415670000   -1.58693381150000
 O         3.13100137910000    1.02808175000000    0.89653773630000
 O         2.82689351310000   -1.39989274920000    0.57068566280000
 C        -0.04277867020000   -0.91714234370000   -0.09484603790000
 C        -1.42675442560000   -0.76544728530000   -0.18266614570000
 C        -2.24072692750000   -1.97579917320000   -0.27605645800000
 C        -3.42791050060000   -2.15419024510000    0.28806497890000
 H        -5.14746494280000    1.86691472300000    0.01912759280000
 H        -3.66418878110000    2.40101203030000    0.94641321470000
 H        -3.88458366710000    0.08091555340000   -1.03856656500000
 H        -1.53515021010000    2.61982649100000    0.02607249180000
 H         0.91848977170000    2.29149295880000    0.28280619380000
 H         2.77856836940000    1.10378148290000   -1.92573395390000
 H         2.56249397280000   -0.65644442400000   -2.15955813800000
 H         4.13423182390000   -0.01104605360000   -1.62809615180000
 H         0.40818595710000   -1.89777055920000   -0.11712909070000
 H        -1.77354010680000   -2.79544294860000   -0.80800564240000
 H        -3.90224410960000   -1.38938363000000    0.87931804370000
 H        -3.95528904540000   -3.08890357830000    0.20035229550000
$end

$rem
 BASIS = 6-31G*
 GUI = 2
 METHOD = B3LYP
 PRINT_ORBITALS false
 MOLDEN_FORMAT false
$end