$molecule
0 1
 C        -2.82728975670000    2.30793576930000    0.62320937150000
 C        -2.52539632310000    1.28598341170000   -0.16636523140000
 C        -1.25244758780000    0.56705846250000   -0.14832492510000
 C        -0.07408423520000    1.25260858870000    0.13429434890000
 C         1.16488673260000    0.63405615950000    0.17728921630000
 C         2.39181344480000    1.47936740820000    0.38395197520000
 C         2.89163649730000    2.00809499960000   -0.96222242850000
 C         1.23267219880000   -0.73727548050000   -0.08162255630000
 C         2.48369293140000   -1.51172944240000   -0.04795331900000
 C         3.26422159870000   -1.64250691360000    1.01208019000000
 C         0.06113028210000   -1.41990139130000   -0.39637673950000
 C        -1.17771092750000   -0.80322988030000   -0.43490893070000
 C        -2.40359917910000   -1.62595584340000   -0.71782452030000
 C        -3.20816744340000   -1.87168618310000    0.55951717640000
 H        -3.77884115590000    2.80859323760000    0.56242120760000
 H        -2.14628127820000    2.67175129330000    1.37451666180000
 H        -3.26076071290000    0.93659905280000   -0.87972167440000
 H        -0.12643385240000    2.31782928120000    0.30954539010000
 H         3.18656245880000    0.90217029320000    0.85359856840000
 H         2.14850799000000    2.32252623190000    1.03390361410000
 H         3.16470727360000    1.17927604420000   -1.61182899080000
 H         3.76474615930000    2.64173457950000   -0.82307241300000
 H         2.11472455190000    2.58836572800000   -1.45558331300000
 H         2.71839766930000   -2.04769461110000   -0.96072972430000
 H         3.03578405000000   -1.16101935550000    1.94910631870000
 H         4.15329598100000   -2.25046176640000    0.99237922690000
 H         0.12550311030000   -2.47983634800000   -0.60466449590000
 H        -2.10218457340000   -2.58657857770000   -1.14094089920000
 H        -3.03738537640000   -1.12492488410000   -1.45325008870000
 H        -2.59705383310000   -2.39366750040000    1.29273435910000
 H        -4.08661243980000   -2.47682085830000    0.34581586420000
 H        -3.53119902640000   -0.92809483750000    0.99342123800000
$end

$rem
 BASIS = 6-31G*
 GUI = 2
 METHOD = B3LYP
 PRINT_ORBITALS false
 MOLDEN_FORMAT false
$end