$molecule
0 1
 C        -3.74055386170000   -1.97816388290000   -0.44433856540000
 C        -2.56968290000000   -2.06796418730000    0.18004192110000
 C        -1.59108837940000   -1.01873724240000    0.25346456220000
 C        -0.37354384510000   -1.06462286870000    0.87804173970000
 C         0.39125481820000    0.11599463660000    0.76800441320000
 C         1.70927273600000    0.24683671990000    1.46774842590000
 C         2.77697131220000   -0.74387335650000    0.98166472220000
 C         3.37744441320000   -0.43647167130000   -0.39018572610000
 C         2.42124592790000   -0.67780950190000   -1.55191463860000
 C        -0.26408001280000    1.09225954910000    0.05159344690000
 C         0.08991278090000    2.44366079270000   -0.31486465940000
 C         1.30812235890000    2.93114563580000   -0.52892656590000
 S        -1.83318748880000    0.53703285460000   -0.47682473000000
 H        -4.43509759120000   -2.79894777790000   -0.46704226520000
 H        -4.03623385590000   -1.07526916350000   -0.95292420300000
 H        -2.28645219320000   -2.98301379270000    0.68551402300000
 H        -0.03436815440000   -1.93301233800000    1.41650983860000
 H         1.53223219960000    0.04271447130000    2.52943828070000
 H         2.08242655830000    1.26672523670000    1.38910520960000
 H         2.35383208020000   -1.75027548080000    0.96454458680000
 H         3.58765665640000   -0.74004445240000    1.71524828190000
 H         4.25447373550000   -1.07598561150000   -0.52295398110000
 H         3.72834058320000    0.59806574290000   -0.41067379230000
 H         2.02480711930000   -1.69038980430000   -1.51310738620000
 H         2.94231659200000   -0.55045615290000   -2.49856188630000
 H         1.58784817580000    0.01740691730000   -1.52702115970000
 H        -0.76553926790000    3.09173306320000   -0.46689115670000
 H         2.19835117370000    2.33328587390000   -0.45918734350000
 H         1.44736737980000    3.96182620310000   -0.80649519730000
$end

$rem
 BASIS = 6-31G*
 GUI = 2
 METHOD = B3LYP
 PRINT_ORBITALS false
 MOLDEN_FORMAT false
$end