$molecule
0 1
 C        -4.21461641120000   -0.26417307500000   -0.13951406060000
 C        -3.31541197060000    0.69129630670000    0.06160140920000
 C        -1.86623257470000    0.53251987010000    0.05205157460000
 C        -1.21618608080000   -0.69008311320000   -0.10894156420000
 C         0.17413337190000   -0.75379162060000   -0.12229046900000
 C         0.86679860710000   -2.02417851010000   -0.31181165930000
 C         0.40620683100000   -3.18949549940000    0.12345526380000
 C         0.87790012010000    0.45902693530000    0.01360578660000
 C         2.36454920900000    0.50130213460000    0.04255554860000
 O         3.05267172790000   -0.36979017530000    0.49895341320000
 O         2.92526564590000    1.61068562640000   -0.48026203880000
 C         0.13155912280000    1.62393961910000    0.19978644020000
 N        -1.18049133250000    1.66784076240000    0.21820095010000
 H        -5.26917692490000   -0.05027027840000   -0.11433752240000
 H        -3.94730204080000   -1.28821086190000   -0.33877477600000
 H        -3.62998763370000    1.70849597920000    0.25048285040000
 H        -1.78648672520000   -1.59451262340000   -0.24195150440000
 H         1.82591236220000   -1.97438407080000   -0.80624121130000
 H        -0.51437025130000   -3.27576488880000    0.67731890730000
 H         0.95560634510000   -4.10138931280000   -0.03177045910000
 H         2.27394832490000    2.22644435580000   -0.84155713920000
 H         0.61738321450000    2.57854849380000    0.37606913000000
$end

$rem
 BASIS = 6-31G*
 GUI = 2
 METHOD = B3LYP
 PRINT_ORBITALS false
 MOLDEN_FORMAT false
$end