$molecule
0 1
 C        -4.27606760500000   -1.63842148270000    0.47441833110000
 C        -3.68845608030000   -0.59694879030000   -0.09880716080000
 C        -2.25305975740000   -0.31665679550000   -0.04138667190000
 C        -1.33540211120000   -1.36131749220000   -0.03345736780000
 C         0.03091990690000   -1.13924417390000   -0.02329372550000
 C         0.48541731290000    0.16722210830000   -0.02367528680000
 O         1.84711549000000    0.53670652840000   -0.01437831990000
 C         2.78519180310000   -0.37935919450000    0.05567483320000
 F         2.72146142990000   -1.16199585090000    1.14948295760000
 F         2.81551271170000   -1.22978490640000   -0.98845799230000
 F         3.97214019890000    0.21994992320000    0.08738678220000
 C        -0.40232943320000    1.22902477660000   -0.03128935750000
 C        -1.77415223700000    1.00739739490000   -0.04066109860000
 C        -2.69699007270000    2.14300755940000   -0.00200020350000
 C        -2.46978452610000    3.31679133660000   -0.57532237600000
 H        -5.33670088770000   -1.80288654610000    0.39295571500000
 H        -3.72689154160000   -2.35442625610000    1.06264957900000
 H        -4.28356560120000    0.11427284000000   -0.65608705090000
 H        -1.69518787800000   -2.37807505460000   -0.05822846140000
 H         0.70447181110000   -1.98077010910000   -0.02002719600000
 H        -0.00716153610000    2.23107693730000   -0.00634168440000
 H        -3.61996498170000    1.97842015220000    0.53769302030000
 H        -1.57820554270000    3.51172475630000   -1.14744306020000
 H        -3.17988345000000    4.12310705320000   -0.51001503560000
$end

$rem
 BASIS = 6-31G*
 GUI = 2
 METHOD = B3LYP
 PRINT_ORBITALS false
 MOLDEN_FORMAT false
$end