$molecule
0 1
 C        -3.88876038780000    0.22293112560000   -0.03905641890000
 C        -2.90771108360000   -0.67070977390000    0.01456176760000
 C        -1.48111369050000   -0.39007969580000    0.01291810200000
 C        -0.56567719120000   -1.44769740400000    0.01235806280000
 N         0.73664639760000   -1.29299215130000    0.00604566120000
 C         1.25777111920000   -0.06541891180000    0.00209190460000
 C         2.71358721410000    0.02251736780000   -0.00676181770000
 C         3.50266200930000   -1.04599211070000   -0.02231108420000
 C         0.43910483030000    1.08061195640000    0.00668629180000
 C         1.00642095310000    2.46783134940000    0.00668798680000
 C        -0.93258246120000    0.89336873710000    0.01183239980000
 H        -4.92185411690000   -0.07921958380000   -0.03552607610000
 H        -3.70955812890000    1.28334626690000   -0.09066888890000
 H        -3.15502513260000   -1.72459817640000    0.05952668860000
 H        -0.91234060570000   -2.47458754160000    0.01541328240000
 H         3.13937253690000    1.01519135500000   -0.00119063000000
 H         3.07937536860000   -2.03525448650000   -0.02832981260000
 H         4.57594016160000   -0.96180270700000   -0.02939633930000
 H         1.62676297520000    2.63074598540000    0.88730147300000
 H         0.20537090370000    3.20380915000000    0.01075918840000
 H         1.62042558070000    2.63344235080000   -0.87782906120000
 H        -1.58119258510000    1.75792083490000    0.01775525840000
$end

$rem
 BASIS = 6-31G*
 GUI = 2
 METHOD = B3LYP
 PRINT_ORBITALS false
 MOLDEN_FORMAT false
$end