$molecule
0 1
 C         3.83149952010000    0.67090754000000    0.41596965520000
 C         3.18456457990000   -0.48688495910000    0.33750269610000
 C         1.80068807770000   -0.65529112170000   -0.03307716040000
 N         1.35616842610000   -1.83189626630000   -0.53927281400000
 N         0.06613543680000   -1.80607471930000   -0.85526961400000
 C        -0.36198892900000   -0.59242229600000   -0.53736182890000
 N        -1.69295711580000   -0.25131874210000   -0.75892040940000
 C        -2.64085512190000    0.11288700430000    0.15812183060000
 C        -2.16284350470000    0.30125409530000    1.57456632060000
 O        -3.78954176820000    0.27260553650000   -0.18886381080000
 C         0.69458927250000    0.20034728610000   -0.01538651090000
 C         0.66707449560000    1.57716965380000    0.43340874840000
 C        -0.15346944800000    2.50932196210000   -0.03535378390000
 H         4.86758457700000    0.71105382380000    0.70401137480000
 H         3.36026352370000    1.60771086930000    0.17765323030000
 H         3.71246246010000   -1.41250827370000    0.53685771540000
 H         1.90016435840000   -2.65908182340000   -0.72763776770000
 H        -2.07415902580000   -0.57947269070000   -1.63815849630000
 H        -1.46010775180000   -0.48099164110000    1.85031699530000
 H        -3.02316394340000    0.28153046980000    2.23750966420000
 H        -1.66636735210000    1.26485660160000    1.66841553290000
 H         1.39219133180000    1.82447409110000    1.19901736020000
 H        -0.87334030560000    2.29933618530000   -0.80797518880000
 H        -0.12620717620000    3.51982544570000    0.33491733730000
$end

$rem
 BASIS = 6-31G*
 GUI = 2
 METHOD = B3LYP
 PRINT_ORBITALS false
 MOLDEN_FORMAT false
$end