$molecule
0 1
 C        -4.71982150520000   -1.06416806510000    0.18357817650000
 C        -3.74771338590000   -0.20927414210000    0.47710441530000
 C        -2.34683554140000   -0.31978364200000    0.08925577270000
 C        -1.81948611980000   -1.43323366110000   -0.56577093840000
 C        -0.48023310660000   -1.48086663290000   -0.89306348910000
 C         0.38090320840000   -0.42514791570000   -0.61022580580000
 C         1.84004296290000   -0.54893186950000   -0.95931119580000
 C         2.78479904770000   -0.16527858310000    0.17229894700000
 O         3.85564597220000    0.33794302550000   -0.00010230610000
 O         2.36343098670000   -0.49944643830000    1.40296676660000
 C        -0.13377468000000    0.70651598230000    0.03724575650000
 C         0.68494042780000    1.87526976190000    0.39377066110000
 C         1.49273030220000    2.53120353930000   -0.42355942650000
 C        -1.47883759910000    0.72684920040000    0.39062135200000
 H        -5.73058156940000   -0.89475641760000    0.51250696580000
 H        -4.55774587520000   -1.95776610500000   -0.39437513610000
 H        -3.98442869220000    0.67659509670000    1.05389241090000
 H        -2.45193944780000   -2.27229333630000   -0.80760501730000
 H        -0.08842924870000   -2.36007667670000   -1.38564511160000
 H         2.09890314670000    0.05112150240000   -1.83287827890000
 H         2.06616090740000   -1.59054540870000   -1.21080380320000
 H         1.46684030740000   -0.86671950490000    1.38922966940000
 H         0.54327126590000    2.23246504180000    1.40696279530000
 H         1.63166128410000    2.24714236940000   -1.45227129090000
 H         2.03949469970000    3.39768917720000   -0.09523351420000
 H        -1.86254687290000    1.59906046320000    0.90181239300000
$end

$rem
 BASIS = 6-31G*
 GUI = 2
 METHOD = B3LYP
 PRINT_ORBITALS false
 MOLDEN_FORMAT false
$end