$molecule
0 1
 C        -3.87783127330000    1.15038765440000   -0.42654150600000
 C        -3.27824536410000    0.05360796450000    0.02362723940000
 C        -1.84721584750000   -0.19596510500000    0.09696432470000
 C        -1.39197046040000   -1.44352212380000    0.53364357200000
 C        -0.04862003290000   -1.73261784910000    0.56647345260000
 C         0.91614488520000   -0.78865653470000    0.19562665290000
 N         2.24209348780000   -1.16742808130000    0.19568098920000
 C         3.19566754620000   -0.70129358920000   -0.78592341270000
 C         0.47919860660000    0.50540401990000   -0.14928934280000
 C         1.37499504550000    1.64859297490000   -0.34373020190000
 C         2.39183727260000    1.94916524780000    0.45238963250000
 C        -0.88560941930000    0.75491202860000   -0.23138718400000
 H        -4.95095127260000    1.23568523320000   -0.44122374980000
 H        -3.33402836610000    2.00206049840000   -0.79750744330000
 H        -3.89239803990000   -0.76721580860000    0.37603709990000
 H        -2.10703759280000   -2.20072366230000    0.82320645200000
 H         0.28061392730000   -2.71677506700000    0.87433546720000
 H         2.37109382020000   -2.13126420050000    0.46671308290000
 H         2.68551430960000   -0.25171248210000   -1.63964521920000
 H         3.79909289370000   -1.53672570890000   -1.14081575970000
 H         3.86358747000000    0.05289262780000   -0.35884689480000
 H         1.09966418940000    2.32661778180000   -1.14350470590000
 H         2.65217408800000    1.32756327130000    1.29255280270000
 H         2.98470764480000    2.83625036960000    0.30529472120000
 H        -1.19749811750000    1.74659199690000   -0.52386246470000
$end

$rem
 BASIS = 6-31G*
 GUI = 2
 METHOD = B3LYP
 PRINT_ORBITALS false
 MOLDEN_FORMAT false
$end