$molecule
0 1
 C         0.74645655730000   -3.89821891620000   -0.13862623100000
 C         1.45132489410000   -2.77399184750000   -0.08944417150000
 C         0.91598812230000   -1.42078225010000   -0.02805368000000
 C        -0.43901105970000   -1.12768504000000   -0.01406845060000
 C        -0.91889009880000    0.17836358630000    0.04615222240000
 C        -2.36623532830000    0.41948005870000    0.03733036570000
 O        -2.90321897850000    1.51304788220000    0.06035995890000
 O        -3.08822761890000   -0.71207508870000   -0.00598343260000
 C        -4.49639679240000   -0.54551813940000   -0.01949734530000
 C        -0.01106205490000    1.26499693060000    0.09625439560000
 N        -0.45659217760000    2.53515859470000    0.14471736910000
 C         1.38027098990000    0.99231544200000    0.09442182360000
 C         2.34151222530000    2.09512856710000    0.20782044330000
 C         3.48069075860000    2.18999294550000   -0.46192072720000
 C         1.79304287400000   -0.32615631340000    0.02734959790000
 F         3.11844711380000   -0.58464292560000    0.05204076460000
 H         1.23380540860000   -4.85666768900000   -0.18197842690000
 H        -0.32973836840000   -3.91530201710000   -0.13645551930000
 H         2.53177336660000   -2.83235027410000   -0.09292078960000
 H        -1.15719877200000   -1.92869420450000   -0.05318837450000
 H        -4.91952839740000   -1.54662748750000   -0.03366370140000
 H        -4.80553981740000    0.01410702270000   -0.90507468540000
 H        -4.82454631240000   -0.00225463810000    0.86937796650000
 H        -1.45643574320000    2.67963117680000    0.09817031470000
 H         0.18142991950000    3.30247964700000    0.04649643820000
 H         2.07000752270000    2.87052027690000    0.91552313950000
 H         3.78651532360000    1.45084655160000   -1.18175257830000
 H         4.15185000260000    3.01846651290000   -0.31253621050000
$end

$rem
 BASIS = 6-31G*
 GUI = 2
 METHOD = B3LYP
 PRINT_ORBITALS false
 MOLDEN_FORMAT false
$end