$molecule
0 1
 C        -0.15527887110000   -3.67479859750000    1.03815581080000
 C         0.20146204480000   -2.52654517760000    0.47834946000000
 C        -0.70278010310000   -1.40698277130000    0.21776221970000
 C        -2.04993989980000   -1.62348791370000   -0.06352930790000
 C        -2.90211850460000   -0.57299936560000   -0.34605020210000
 C        -2.42642962020000    0.72663935840000   -0.34565681880000
 C        -1.09035355480000    0.94344209330000   -0.06925429620000
 F        -0.64623230620000    2.21543489770000   -0.02580347640000
 C        -0.20306492480000   -0.09369467340000    0.20622392590000
 C         1.19894425420000    0.18378407920000    0.53288654270000
 C         1.97839837750000    1.00823507960000   -0.14647363820000
 F         1.67353186100000    1.65236161760000   -1.26063522980000
 F         3.24246542680000    1.26169163870000    0.18002340260000
 H         0.55588784980000   -4.46634390430000    1.19946277550000
 H        -1.16130043410000   -3.86329888280000    1.37326807920000
 H         1.23164359190000   -2.37163420750000    0.18602500620000
 H        -2.42463877010000   -2.63479524890000   -0.08266981550000
 H        -3.94085765780000   -0.76316868730000   -0.56774704880000
 H        -3.06788661280000    1.56829120940000   -0.55141402110000
 H         1.62676644260000   -0.30541558740000    1.39438924350000
$end

$rem
 BASIS = 6-31G*
 GUI = 2
 METHOD = B3LYP
 PRINT_ORBITALS false
 MOLDEN_FORMAT false
$end