$molecule
0 1
 C        -4.08195883960000    1.73216343940000    0.32636680400000
 C        -3.41612078940000    0.75366060800000   -0.27204594450000
 C        -1.97534463200000    0.53272154700000   -0.15676645020000
 C        -1.11705009580000    1.63238004250000   -0.08810866620000
 C         0.25413187560000    1.47228581890000   -0.05363432850000
 C         0.77683466210000    0.19410217210000   -0.11305973010000
 S         2.55172008560000   -0.03896601440000   -0.05608642440000
 C         2.88861196700000   -0.15525748150000    1.72837592880000
 O         2.88022684560000   -1.30361026560000   -0.65662075710000
 O         3.20024322180000    1.14204179040000   -0.55785037440000
 C        -0.04190025200000   -0.90922278570000   -0.19246973380000
 C        -1.42937128050000   -0.76478610520000   -0.19496212410000
 C        -2.24134647820000   -1.98011254910000   -0.21310824530000
 C        -3.38809624550000   -2.15367323990000    0.43055239120000
 H        -5.14116824540000    1.86170524180000    0.18537846820000
 H        -3.60253468740000    2.42507042920000    0.99776426430000
 H        -3.94287318040000    0.05101920560000   -0.90506900640000
 H        -1.54081947540000    2.62502180520000   -0.08922112760000
 H         0.92691408710000    2.31427254540000   -0.01708825240000
 H         2.33946944170000   -1.00206825060000    2.11855118060000
 H         2.57123959380000    0.77022257640000    2.19052453210000
 H         3.95417631790000   -0.29959836400000    1.85539820940000
 H         0.41221865560000   -1.88675087400000   -0.25288985400000
 H        -1.80634807930000   -2.80480051530000   -0.76391453020000
 H        -3.82738252510000   -1.38070056050000    1.03838748830000
 H        -3.91686722810000   -3.09088048010000    0.39091246140000
$end

$rem
 BASIS = 6-31G*
 GUI = 2
 METHOD = B3LYP
 PRINT_ORBITALS false
 MOLDEN_FORMAT false
$end