$molecule
0 1
 C         3.27983576550000    1.77233731790000   -0.24879219030000
 C         1.98079862080000    1.83075452140000    0.01739421630000
 C         1.05377543720000    0.70566812120000    0.03300943980000
 C         1.48200287440000   -0.61833728910000    0.01368655320000
 C         0.55349515490000   -1.63811611290000    0.02982452170000
 F         0.98726633890000   -2.92004275400000    0.01349195500000
 C        -0.80234262170000   -1.39449373500000    0.07655472810000
 C        -1.26171969170000   -0.07966605440000    0.10819103480000
 C        -2.69818464180000    0.19524324840000    0.19711504540000
 C        -3.64683733880000   -0.55386114610000   -0.34774937260000
 C        -0.32847495380000    0.96751274130000    0.07922912010000
 O        -0.72101142280000    2.26924706110000    0.06158206810000
 H         3.88999176070000    2.65882769660000   -0.23757435500000
 H         3.78680821450000    0.85516282820000   -0.49554170680000
 H         1.52265221840000    2.78606994900000    0.23162794360000
 H         2.53166946420000   -0.85876167410000   -0.00319761040000
 H        -1.49611926320000   -2.21814003900000    0.11636756760000
 H        -2.98836422350000    1.06881328320000    0.77320459320000
 H        -3.41661442650000   -1.42305734770000   -0.93962245410000
 H        -4.69009190110000   -0.31595859410000   -0.23210495960000
 H        -1.68447966550000    2.32053533180000    0.04996038840000
$end

$rem
 BASIS = 6-31G*
 GUI = 2
 METHOD = B3LYP
 PRINT_ORBITALS false
 MOLDEN_FORMAT false
$end