$molecule
0 1
 C        -4.32606386520000   -0.94682266570000   -0.07642340430000
 C        -3.54994863980000    0.06902724140000    0.27916551860000
 C        -2.10441888010000    0.12392840780000    0.08702282120000
 C        -1.31556880980000   -1.01318675630000    0.10436300180000
 C         0.07299300300000   -0.94289169180000   -0.04131964290000
 C         0.90984492500000   -2.13605539940000   -0.06258167350000
 C         0.61443910670000   -3.28476942600000    0.53217015940000
 C         0.61411072980000    0.33943991380000   -0.19260252040000
 C         2.08685107420000    0.57483341400000   -0.31309694380000
 O         2.62098803630000    1.19778315210000   -1.19138089540000
 O         2.75141163580000    0.00373444830000    0.70226803040000
 C         4.16073476140000    0.18043338910000    0.69911897980000
 N        -0.12180188370000    1.43934969220000   -0.24253747840000
 C        -1.43986657180000    1.35910963440000   -0.11865772260000
 N        -2.10640175900000    2.54884431630000   -0.16373047870000
 H        -5.38718744010000   -0.93623106390000    0.10397310990000
 H        -3.93581222730000   -1.81876322110000   -0.57368416310000
 H        -3.99027521190000    0.93646633770000    0.75528318170000
 H        -1.78390009300000   -1.97623194530000    0.23977240420000
 H         1.84037923540000   -2.04202424000000   -0.60630487530000
 H        -0.28239911400000   -3.41962592170000    1.11312306570000
 H         1.27416721790000   -4.13315850150000    0.47469163990000
 H         4.53478446820000   -0.34518314590000    1.57379175790000
 H         4.40896137100000    1.24234893410000    0.75224939450000
 H         4.59365599920000   -0.23425208890000   -0.21392661050000
 H        -1.54694483460000    3.32912032110000   -0.46764301400000
 H        -3.07459846220000    2.55250630150000   -0.43258976340000
$end

$rem
 BASIS = 6-31G*
 GUI = 2
 METHOD = B3LYP
 PRINT_ORBITALS false
 MOLDEN_FORMAT false
$end