$molecule
0 1
 C         2.68829710170000    2.75268866540000    0.00540453690000
 C         2.59613099940000    1.42735862180000   -0.00664915010000
 C         1.36199053020000    0.67925035520000   -0.00184157060000
 C         0.06216856060000    1.15689327520000    0.00045958320000
 N        -0.76067282100000    0.09158700670000    0.00903061380000
 C        -2.21592069480000    0.11269406800000   -0.00079797880000
 C        -2.68830335890000    0.74753416780000   -1.31309915410000
 C        -2.71893925900000   -1.32528202360000    0.09836313220000
 C        -2.71000826220000    0.92579870760000    1.19982642410000
 N        -0.08808922320000   -1.04957407750000    0.00888220140000
 C         1.20309813550000   -0.73693936000000    0.00297634790000
 C         2.23666384970000   -1.74670339140000    0.00109668370000
 C         1.99380656060000   -3.05231789610000   -0.00169515700000
 H         3.64220836360000    3.25125359270000    0.00137940590000
 H         1.81912816390000    3.38813566520000    0.02029051930000
 H         3.50060832720000    0.83339065840000   -0.02023034020000
 H        -0.30555985290000    2.16220053050000   -0.00455610300000
 H        -2.30910311030000    0.18089248530000   -2.16047545670000
 H        -2.33642123210000    1.77287800720000   -1.39879493240000
 H        -3.77422011290000    0.75100990970000   -1.35486851030000
 H        -2.34560369620000   -1.91149474780000   -0.73589141510000
 H        -3.80538686980000   -1.33796172640000    0.08765208150000
 H        -2.36531920110000   -1.78409957820000    1.01712719600000
 H        -2.39582000550000    1.96405531980000    1.12826503540000
 H        -2.31603184600000    0.50830883210000    2.12367744070000
 H        -3.79560693700000    0.89926390850000    1.24215035720000
 H         3.25374985430000   -1.37777576730000    0.00106682520000
 H         0.98311784920000   -3.42138898180000   -0.00167913480000
 H         2.78802848110000   -3.77907043040000   -0.00389685350000
$end

$rem
 BASIS = 6-31G*
 GUI = 2
 METHOD = B3LYP
 PRINT_ORBITALS false
 MOLDEN_FORMAT false
$end