$molecule
0 1
 C         3.89053952420000    0.17965928490000    0.66400074540000
 C         3.07386084380000   -0.43503558610000   -0.18050291710000
 C         1.60476206160000   -0.35537622640000   -0.16811190730000
 C         0.90746131640000   -1.55162090130000   -0.17883407830000
 C        -0.47742339850000   -1.51996866140000   -0.10383404810000
 N        -1.39494142100000   -2.54327322120000   -0.10691984580000
 C        -2.55102586440000   -1.96705180150000   -0.05423276150000
 N        -2.48144929950000   -0.60280576450000   -0.00228474750000
 C        -1.14990594170000   -0.27999740000000   -0.03338061560000
 C        -0.47885308050000    0.94226239350000   -0.06738826840000
 C        -1.19186099100000    2.21688614350000   -0.07749592140000
 C        -2.29541998430000    2.48470407570000    0.61054856860000
 C         0.92270208300000    0.88755746740000   -0.13879179930000
 N         1.63599466360000    2.06340155940000   -0.26606300740000
 H         4.95809001000000    0.04453365570000    0.61732898180000
 H         3.52958858140000    0.81384457120000    1.45877109180000
 H         3.48702754520000   -1.11304307040000   -0.91783906320000
 H         1.43160747660000   -2.49315241020000   -0.21898704490000
 H        -3.48791587480000   -2.49019405780000   -0.04349663910000
 H        -3.24929818370000    0.04645305970000   -0.01505770260000
 H        -0.76767773180000    2.98274767730000   -0.71637389730000
 H        -2.72989714430000    1.77787364270000    1.29859361670000
 H        -2.78692884150000    3.44036011040000    0.54064269900000
 H         1.24366150930000    2.88554243790000    0.15850997230000
 H         2.63577025900000    1.97673816430000   -0.18814123480000
$end

$rem
 BASIS = 6-31G*
 GUI = 2
 METHOD = B3LYP
 PRINT_ORBITALS false
 MOLDEN_FORMAT false
$end