$molecule
0 1
 C        -4.17089812070000    0.06695975700000    0.20433925520000
 C        -3.32075571780000   -0.94151968460000    0.05704783690000
 C        -1.87441370940000   -0.76921184790000   -0.01781528500000
 C        -1.03256740130000   -1.87059294470000   -0.20656432910000
 C         0.33276354420000   -1.66689989990000   -0.20288304430000
 C         0.83854016210000   -0.38052784270000   -0.04128547210000
 C         2.31982870290000   -0.21965921850000    0.05765610950000
 N         2.73122993460000    0.43511775810000    1.17302359240000
 O         3.09544768090000   -0.69876708100000   -0.74026897760000
 C        -0.08274762580000    0.67815320360000    0.04366567090000
 C         0.29888105130000    2.09201411740000    0.04907992470000
 C         1.35248415610000    2.59597789920000   -0.57841669450000
 N        -1.38969568630000    0.46327056750000    0.08933807810000
 H        -5.23511646900000   -0.08545561560000    0.25656172700000
 H        -3.80771659740000    1.07768363530000    0.27445123740000
 H        -3.67213897670000   -1.96217329740000   -0.01843547250000
 H        -1.44603188460000   -2.85921252830000   -0.33393579660000
 H         1.02270725860000   -2.49112428000000   -0.31144854670000
 H         2.08267307240000    0.90152773170000    1.78124877080000
 H         3.71614850520000    0.60415969630000    1.29519425500000
 H        -0.41391069580000    2.73883776720000    0.54256264210000
 H         2.04124469340000    1.97859788270000   -1.13103086970000
 H         1.55455984020000    3.65370646350000   -0.57777183740000
$end

$rem
 BASIS = 6-31G*
 GUI = 2
 METHOD = B3LYP
 PRINT_ORBITALS false
 MOLDEN_FORMAT false
$end