$molecule
0 1
 C        -3.93755173110000   -0.90897157850000    0.11494862870000
 C        -3.08496120470000    0.10204217000000   -0.00028860490000
 C        -1.63113800710000    0.00937318010000    0.00580423950000
 C        -0.92357978590000   -1.19013205880000    0.04869973800000
 C         0.46019589310000   -1.25061958860000    0.05591237200000
 C         1.17592834400000   -2.52250868830000    0.11017287930000
 C         0.68620333480000   -3.70460794540000   -0.24097481390000
 C         1.21959801840000   -0.05543930900000    0.03271894350000
 O         2.56278252550000   -0.20554996600000    0.04581770910000
 C         3.41776599740000    0.91930546570000    0.05130215040000
 C         0.52050293150000    1.14935396710000   -0.01598403430000
 F         1.15562760740000    2.34697197520000   -0.05040071930000
 C        -0.86743197540000    1.17450513790000   -0.03205614680000
 F        -1.47068535230000    2.37745054650000   -0.07763957290000
 H        -5.00027649160000   -0.74165905860000    0.10084211510000
 H        -3.62208035190000   -1.93140343880000    0.23123521430000
 H        -3.47048161470000    1.10758925450000   -0.10422748840000
 H        -1.47449636130000   -2.11413284220000    0.09019950320000
 H         2.19872380000000   -2.44735174320000    0.45058413540000
 H        -0.31098859350000   -3.83146024220000   -0.62686188890000
 H         1.28151308630000   -4.59802819660000   -0.16791016110000
 H         4.42586160170000    0.50860618500000    0.08610514990000
 H         3.25319488140000    1.54930852930000    0.92857081790000
 H         3.30325237940000    1.51892341330000   -0.85458779530000
$end

$rem
 BASIS = 6-31G*
 GUI = 2
 METHOD = B3LYP
 PRINT_ORBITALS false
 MOLDEN_FORMAT false
$end