$molecule
0 1
 C         3.92209863500000    0.30526423910000   -0.52048247380000
 C         3.06837051540000   -0.48193408640000    0.12281900690000
 C         1.60655953700000   -0.38093351060000    0.11680961080000
 C         0.89664174950000   -1.57021362270000    0.05957497110000
 C        -0.48792957210000   -1.52663738510000    0.00387071460000
 N        -1.41266149980000   -2.54250167780000   -0.04719719800000
 C        -2.56501654650000   -1.95674431810000   -0.04977513370000
 N        -2.48638710610000   -0.59245807150000   -0.01276114780000
 C        -1.15231644390000   -0.28104908230000    0.02230213700000
 C        -0.47302325500000    0.93276084000000    0.13011768720000
 C        -1.19681694420000    2.19810036550000    0.22506800220000
 C        -2.28966211770000    2.50614386880000   -0.46221444910000
 C         0.92948854970000    0.86706217240000    0.17941960050000
 N         1.66327129910000    2.03487314240000    0.23697120580000
 H         4.98398589440000    0.12680200660000   -0.48110295470000
 H         3.59814580380000    1.12183547450000   -1.14319947240000
 H         3.45253353640000   -1.33388056940000    0.67241611090000
 H         1.41292924190000   -2.51667992320000    0.03728213940000
 H        -3.50575800640000   -2.47195713170000   -0.08324093970000
 H        -3.24942442820000    0.06046538310000    0.04076720960000
 H        -0.80660400660000    2.92451149700000    0.93145058000000
 H        -2.69531951730000    1.85086158290000   -1.21517918180000
 H        -2.79616867110000    3.44689027320000   -0.32803455170000
 H         1.16728046090000    2.85149061390000    0.55580944330000
 H         2.59584624740000    1.93650501810000    0.60864158150000
$end

$rem
 BASIS = 6-31G*
 GUI = 2
 METHOD = B3LYP
 PRINT_ORBITALS false
 MOLDEN_FORMAT false
$end