$molecule
0 1
 C        -0.79871564600000   -2.83021186620000   -0.11165935440000
 C        -0.39801049270000   -1.70714956870000    0.46772323180000
 C        -0.97090555520000   -0.39065098370000    0.21024634010000
 C        -2.33486638410000   -0.24525558570000   -0.06399326110000
 N        -2.94282544650000    0.90830246650000   -0.24213013290000
 C        -2.22551834150000    2.01522769090000   -0.13166290510000
 C        -0.87161123210000    2.00951608970000    0.14961801920000
 C        -0.21441390630000    0.78904833620000    0.30216384080000
 C         1.22918286310000    0.80427993770000    0.54039698030000
 C         2.11688125680000    0.01015827160000   -0.03412157380000
 F         1.88433687580000   -0.93470094880000   -0.93332634750000
 F         3.42562820040000    0.08472893650000    0.19310543240000
 H        -0.34994464190000   -3.77794803030000    0.12935180200000
 H        -1.56726799460000   -2.84154626790000   -0.86565980210000
 H         0.40672705180000   -1.73132248930000    1.19265731070000
 H        -2.96899736890000   -1.11961240080000   -0.12292115430000
 H        -2.76513816010000    2.94175090290000   -0.27315751490000
 H        -0.32162899930000    2.93487222980000    0.22823039700000
 H         1.61656233300000    1.57102172620000    1.19508416530000
$end

$rem
 BASIS = 6-31G*
 GUI = 2
 METHOD = B3LYP
 PRINT_ORBITALS false
 MOLDEN_FORMAT false
$end