$molecule
0 1
 C        -3.39598165620000    0.76349539590000   -0.00169625630000
 C        -2.66480397960000   -0.34717713480000   -0.00152967670000
 C        -1.22940404870000   -0.38658800870000    0.00010655430000
 C        -0.42622850450000   -1.50414961610000   -0.00106296850000
 N         0.89493364280000   -1.28741074390000   -0.00032183780000
 C         1.18977121540000   -0.02721331950000    0.00155141630000
 C         2.51144297330000    0.53493647310000    0.00169343310000
 C         3.61601233910000   -0.20715787600000   -0.00474696540000
 S        -0.22163292700000    1.02720919250000    0.00281844210000
 H        -4.47100749540000    0.73217752820000   -0.00329157380000
 H        -2.93715136700000    1.73866041720000   -0.00014727100000
 H        -3.13928199210000   -1.32038390210000   -0.00315076380000
 H        -0.78929163700000   -2.51680204770000   -0.00256324840000
 H         2.55707963510000    1.61543222130000    0.00679818920000
 H         3.55433225340000   -1.28131949100000   -0.01015916680000
 H         4.59547203580000    0.23772270420000   -0.00492368960000
$end

$rem
 BASIS = 6-31G*
 GUI = 2
 METHOD = B3LYP
 PRINT_ORBITALS false
 MOLDEN_FORMAT false
$end