$molecule
0 1
 C         3.55431485720000   -1.21405923360000   -0.11057862100000
 C         2.85588892070000   -0.15286045350000    0.27076997420000
 C         1.41184652050000    0.00426035310000    0.11037527130000
 C         0.57076937200000   -1.10314324040000    0.15393617540000
 C        -0.80684467180000   -1.01020726470000    0.02911254670000
 C        -1.61825222970000   -2.27136615810000    0.05917568620000
 C        -1.37553261660000    0.25563396000000   -0.15337697930000
 C        -2.81177444200000    0.50661957960000   -0.28444436110000
 C        -3.78114508950000   -0.06415579220000    0.41698532050000
 C        -0.52859459410000    1.36237537040000   -0.23231382210000
 C         0.84272057750000    1.27056699870000   -0.09004308750000
 C         1.69263174250000    2.50308378580000   -0.18193738060000
 H         4.61863063680000   -1.27462464040000    0.04178057390000
 H         3.09757525200000   -2.05508450000000   -0.60494180270000
 H         3.37184737500000    0.68007675650000    0.73040210270000
 H         1.00930896890000   -2.07833165390000    0.31070084140000
 H        -1.03100130930000   -3.10291627460000   -0.32584031640000
 H        -2.52185581750000   -2.17023062000000   -0.53712708070000
 H        -1.90815857050000   -2.51651868770000    1.08116494750000
 H        -3.06656978690000    1.28259423510000   -0.99783481460000
 H        -3.58823843410000   -0.79724474710000    1.18021307090000
 H        -4.81323636560000    0.20842191660000    0.27107925140000
 H        -0.97304332780000    2.33555799720000   -0.39442933040000
 H         1.08520311540000    3.36627059630000   -0.44324885990000
 H         2.46799025100000    2.38205141970000   -0.93706650060000
 H         2.17970906870000    2.70621583680000    0.77219331800000
$end

$rem
 BASIS = 6-31G*
 GUI = 2
 METHOD = B3LYP
 PRINT_ORBITALS false
 MOLDEN_FORMAT false
$end