$molecule
0 1
 C         1.28529894040000    3.42843060400000    0.81398288940000
 C         1.57656682420000    2.39004609030000    0.04258561470000
 C         0.79892289840000    1.15383297050000    0.00909047410000
 C        -0.58711423460000    1.20696056680000    0.12276194750000
 C        -1.39352850950000    0.07931836820000    0.03292359320000
 C        -2.85181880260000    0.34493988430000    0.19200541230000
 O        -3.29126067460000    1.17631881140000    0.94702978520000
 O        -3.63020179570000   -0.38100903630000   -0.62123555670000
 C        -5.02496953110000   -0.12554672590000   -0.53510403330000
 C        -0.81333550700000   -1.18780843360000   -0.15174174360000
 C        -1.59755689830000   -2.41920471610000   -0.19740125440000
 C        -1.14747719620000   -3.60910062050000    0.18141485090000
 C         0.57351440360000   -1.23937035410000   -0.26397497470000
 C         1.37815026840000   -0.11018403950000   -0.18620779170000
 C         2.84105926600000   -0.35707847970000   -0.28197383730000
 O         3.32426218460000   -1.31338879720000   -0.83773360970000
 O         3.57662132940000    0.56417163220000    0.35426392280000
 C         4.98074538250000    0.35705614580000    0.33673773870000
 H         1.87856454660000    4.32633899190000    0.79739187370000
 H         0.46096849020000    3.41199153770000    1.50713352380000
 H         2.43729471140000    2.42815208030000   -0.60998405540000
 H        -1.06822776870000    2.16324528630000    0.26406186250000
 H        -5.49527302460000   -0.74772842350000   -1.29222960500000
 H        -5.22876447530000    0.93039330230000   -0.72329786910000
 H        -5.39603134420000   -0.38204813680000    0.45938333620000
 H        -2.61341751050000   -2.32035495940000   -0.54710729380000
 H        -0.15426990460000   -3.75716540070000    0.57068174630000
 H        -1.77165800530000   -4.48466637340000    0.12999300770000
 H         1.06143816860000   -2.18711614880000   -0.43415032900000
 H         5.41446785430000    1.17389689240000    0.90761824870000
 H         5.35356625910000    0.36291028050000   -0.68986773210000
 H         5.22805920990000   -0.60431032110000    0.79169585090000
$end

$rem
 BASIS = 6-31G*
 GUI = 2
 METHOD = B3LYP
 PRINT_ORBITALS false
 MOLDEN_FORMAT false
$end