$molecule
0 1
 C         2.89847100300000    1.23881477720000   -0.28813144300000
 C         2.50313712830000    0.13250353950000    0.32487763150000
 C         1.21003876370000   -0.52944352440000    0.14949322950000
 C         1.18048200370000   -1.92132959550000    0.12167308300000
 C        -0.00012139630000   -2.60321216090000   -0.10651424820000
 C        -1.18068691650000   -1.90489613920000   -0.27827074860000
 C        -1.21008973770000   -0.51538900990000   -0.19220176500000
 C        -2.50310459250000    0.15876653200000   -0.31320748400000
 C        -2.89834780850000    1.21123818880000    0.38831249960000
 C        -0.00001697560000    0.17382699830000    0.00729454440000
 C        -0.00002398730000    1.58631326950000    0.06509661070000
 N         0.00021382310000    2.73321891160000    0.11179548000000
 H         3.88082752400000    1.64734820490000   -0.12319980790000
 H         2.27121463910000    1.77227495110000   -0.98096947170000
 H         3.19069610010000   -0.39471476470000    0.97590974690000
 H         2.10370549570000   -2.46671352750000    0.25289978600000
 H        -0.00007614490000   -3.68220463470000   -0.15052487060000
 H        -2.10399507920000   -2.43757961100000   -0.45352818260000
 H        -3.19060249300000   -0.31340614130000   -1.00523654110000
 H        -2.27100456080000    1.68613301680000    1.12230678180000
 H        -3.88060860080000    1.63207021090000    0.25755904090000
$end

$rem
 BASIS = 6-31G*
 GUI = 2
 METHOD = B3LYP
 PRINT_ORBITALS false
 MOLDEN_FORMAT false
$end