$molecule
0 1
 C           -1.18800203500000        4.59075456840000        0.21634324440000
 C           -0.19083607870000        3.73843147760000        0.01477179810000
 C           -0.27952762410000        2.28188940460000       -0.02155662920000
 C           -1.49097993880000        1.59625866380000        0.02941210180000
 C           -1.54975248880000        0.20313646530000       -0.00479539320000
 C           -2.86284353790000       -0.42250579430000        0.05361912320000
 C           -3.16024098990000       -1.71365211840000        0.05708574870000
 F           -2.33372526910000       -2.74628567040000        0.00865156620000
 F           -4.41197430670000       -2.16442133620000        0.11466678000000
 C           -0.36036078790000       -0.51772657100000       -0.09436498350000
 C            0.85627794890000        0.15271435600000       -0.14974836520000
 C            2.09548901010000       -0.66351619670000       -0.24823855000000
 O            2.10615541150000       -1.86868845480000       -0.29512491080000
 O            3.20040973510000        0.09247344760000       -0.28963125520000
 C            4.44789383400000       -0.59683764110000       -0.36900550130000
 C            4.91496345500000       -1.06537785870000        1.00171652920000
 C            0.89797884380000        1.54061472190000       -0.11508981550000
 H           -1.01887905390000        5.65362426830000        0.22739498780000
 H           -2.20433193940000        4.27669745570000        0.38131905580000
 H            0.80901245330000        4.12707632130000       -0.13303029180000
 H           -2.41372032240000        2.15222643150000        0.09202212540000
 H           -3.71297911240000        0.24273461400000        0.10234137390000
 H           -0.34683844080000       -1.59492214260000       -0.12635231210000
 H            5.14414559050000        0.12741201420000       -0.79734188000000
 H            4.33726698410000       -1.45317772950000       -1.04249573660000
 H            4.98137269300000       -0.22272068640000        1.68599875690000
 H            5.89248900690000       -1.53062331380000        0.91364049010000
 H            4.21349701320000       -1.79278853870000        1.40279815900000
 H            1.85194898740000        2.04281990660000       -0.15938213840000
$end

$rem
 BASIS = 6-31G*
 GUI = 2
 METHOD = B3LYP
 PRINT_ORBITALS false
 MOLDEN_FORMAT false
$end