$molecule
0 1
 C        -4.11499945810000   -0.74737706640000    0.55363285350000
 C        -2.85306221260000   -0.91044309280000    0.17676042430000
 C        -1.87616648860000    0.15336204570000   -0.02969240760000
 C        -2.21132221960000    1.50654418380000   -0.08378035210000
 C        -1.24743113710000    2.47123484530000   -0.30642231000000
 C         0.07811363750000    2.11442767990000   -0.46643184360000
 C         0.46547803900000    0.77693496480000   -0.39600228350000
 C         1.87560960020000    0.42665427740000   -0.55613215210000
 C         2.52553592000000   -0.51228805920000    0.11250906800000
 F         2.05783149630000   -1.28314446570000    1.07832892790000
 F         3.81661878030000   -0.77514929960000   -0.07348564580000
 C        -0.52930818080000   -0.17704370350000   -0.19804147090000
 F        -0.18331022320000   -1.48040075940000   -0.20940694790000
 H        -4.76759640160000   -1.59245506880000    0.68727789540000
 H        -4.54703043790000    0.21842095020000    0.75291176330000
 H        -2.47432784990000   -1.91093719500000    0.01608678290000
 H        -3.24226732740000    1.79999313130000    0.03001974020000
 H        -1.53124596140000    3.51124526980000   -0.35915232070000
 H         0.83034015710000    2.86941627960000   -0.63613226580000
 H         2.45187967040000    1.00702433280000   -1.26061409610000
$end

$rem
 BASIS = 6-31G*
 GUI = 2
 METHOD = B3LYP
 PRINT_ORBITALS false
 MOLDEN_FORMAT false
$end