$molecule
0 1
 C         4.09921666030000   -0.74537329980000   -0.69520428480000
 C         3.33960967420000    0.22899031180000   -0.20941596560000
 C         1.89104050920000    0.19888106410000   -0.05629367930000
 C         1.11167576910000   -0.93599226120000   -0.26810084470000
 C        -0.26940083820000   -0.95467965850000   -0.10082789370000
 C        -0.94996378860000   -2.24391389620000   -0.26190917470000
 C        -1.91682875290000   -2.70074972980000    0.52069366890000
 C        -0.91106747360000    0.24337473090000    0.23461094140000
 S        -2.68169876320000    0.41259312430000    0.36165213720000
 C        -3.16320653990000   -0.05420736480000   -1.32937420480000
 C        -0.16467939160000    1.39011777140000    0.46095024620000
 C         1.20701235840000    1.35385733320000    0.33276867880000
 F         1.89791100010000    2.49066434350000    0.56447176650000
 H         5.16639100250000   -0.63102068360000   -0.77222744890000
 H         3.70003897150000   -1.68459764370000   -1.03800235650000
 H         3.80458754970000    1.15453121840000    0.10386329250000
 H         1.59954733120000   -1.85895471980000   -0.54183687180000
 H        -0.55006820040000   -2.87234187030000   -1.04943377440000
 H        -2.31386461970000   -2.12102775180000    1.33621022490000
 H        -2.34392124780000   -3.67815042460000    0.37255501290000
 H        -4.23731282250000    0.08665973610000   -1.38708581250000
 H        -2.90822792800000   -1.09321392130000   -1.51349844800000
 H        -2.66037884120000    0.60037700030000   -2.03476389130000
 H        -0.65565588980000    2.31143446730000    0.73167651470000
$end

$rem
 BASIS = 6-31G*
 GUI = 2
 METHOD = B3LYP
 PRINT_ORBITALS false
 MOLDEN_FORMAT false
$end