$molecule
0 1
C            3.23352480480000       -2.36420617470000        0.57493067590000
C            2.11653885100000       -2.65127734620000       -0.08007043860000
C            0.91456427060000       -1.81852261520000       -0.11770128670000
C           -0.32090857810000       -2.46005246850000       -0.03142445140000
C           -1.50260593860000       -1.75001686430000        0.00672946930000
C           -1.45742519260000       -0.36288406420000       -0.06544490600000
C           -2.73153950410000        0.43006687150000        0.00156065570000
F           -3.78712874480000       -0.24334410820000       -0.48301923770000
F           -3.05187324070000        0.76311611860000        1.26758892710000
F           -2.66769974740000        1.58106190700000       -0.68348275410000
C           -0.24653778770000        0.29838020990000       -0.18143235030000
C            0.95062583240000       -0.41480456240000       -0.21316461030000
C            2.21719274130000        0.27550923970000       -0.42658824560000
C            2.50749903220000        1.51738172490000       -0.07115946750000
F            1.73849102910000        2.36340983620000        0.59993458690000
F            3.67788250280000        2.09499980650000       -0.32253253110000
H            4.06679620320000       -3.04568562450000        0.58705805450000
H            3.34671438220000       -1.46061325330000        1.14987470340000
H            2.02443097460000       -3.60305894120000       -0.58836851360000
H           -0.34655137940000       -3.53790937550000        0.02654372660000
H           -2.45064391410000       -2.25905593760000        0.08287330210000
H           -0.23968852950000        1.37310405830000       -0.26951910660000
H            3.00072687090000       -0.27332479740000       -0.92780571940000
$end

$rem
BASIS = 6-31G*
GUI = 2
METHOD = B3LYP
PRINT_ORBITALS false
MOLDEN_FORMAT false
$end
