$molecule
0 1
 C         3.99814673370000   -0.46334578550000    0.08952098390000
 C         2.98232960290000    0.39133187030000    0.12387219300000
 C         1.56697612700000    0.06880095400000    0.00535919750000
 C         1.09096226180000   -1.22376224910000   -0.22077787950000
 C        -0.26163608880000   -1.45499176170000   -0.32270316830000
 C        -1.20058966150000   -0.42953162090000   -0.18130532560000
 C        -2.61316493930000   -0.80141595300000   -0.27188167770000
 C        -3.60230357060000   -0.33670685180000    0.47877043460000
 C        -0.73740856950000    0.87730494520000    0.01903440950000
 C        -1.65745859070000    2.05888978270000    0.10346175350000
 C         0.62940060610000    1.09508391320000    0.10511420050000
 H         5.01613798040000   -0.12699304990000    0.18797984740000
 H         3.86419946490000   -1.52412028360000   -0.03516086900000
 H         3.19219973470000    1.44621868730000    0.25731873000000
 H         1.77969694900000   -2.04738064030000   -0.32564403740000
 H        -0.61699887210000   -2.46096226450000   -0.49949940480000
 H        -2.82480757430000   -1.57860499880000   -0.99788470270000
 H        -3.44621468190000    0.39017358190000    1.25626477160000
 H        -4.61112437450000   -0.69586464040000    0.36077905650000
 H        -2.56915774530000    1.88756109600000   -0.46365842070000
 H        -1.16146427220000    2.94728413970000   -0.28301863550000
 H        -1.93124561340000    2.25745036130000    1.13984619930000
 H         0.98196610070000    2.10719738340000    0.25514837340000
$end

$rem
 BASIS = 6-31G*
 GUI = 2
 METHOD = B3LYP
 PRINT_ORBITALS false
 MOLDEN_FORMAT false
$end