$molecule
0 1
 C         4.59512690390000    0.75018573320000   -0.04959647900000
 C         3.81841420300000   -0.32403666220000    0.03323122390000
 C         2.36250348400000   -0.34768688740000    0.01813584790000
 C         1.70472323670000   -1.57959835730000   -0.02519914380000
 C         0.32955461280000   -1.65286852430000   -0.04693643530000
 C        -0.45212044670000   -0.49475809630000   -0.01949121470000
 C        -1.89676969630000   -0.64150732880000   -0.04195761390000
 C        -2.82470442270000    0.30383142080000   -0.00129942420000
 F        -2.65444294620000    1.61884875450000    0.07051582540000
 F        -4.13115057140000    0.04110739220000   -0.02776112190000
 C         0.20160657230000    0.73928999710000    0.02996742360000
 C         1.57793215650000    0.80741718890000    0.04763086270000
 H         5.66817484810000    0.66613582670000   -0.03349494870000
 H         4.20333666460000    1.74854691580000   -0.14141968670000
 H         4.28190498060000   -1.30035628020000    0.11070306440000
 H         2.28713064990000   -2.48993638320000   -0.04606011930000
 H        -0.15436491180000   -2.61829182890000   -0.08354463720000
 H        -2.27712493040000   -1.65167430830000   -0.09735933570000
 H        -0.36734646590000    1.65430434270000    0.05512926180000
 H         2.05095878550000    1.77587771320000    0.09170583160000
$end

$rem
 BASIS = 6-31G*
 GUI = 2
 METHOD = B3LYP
 PRINT_ORBITALS false
 MOLDEN_FORMAT false
$end