$molecule
0 1
 C        -4.22449709000000   -1.39825413060000   -0.15797365650000
 C        -3.39172059920000   -0.40167965270000    0.11469893610000
 C        -1.93835261700000   -0.42689425010000   -0.01063577490000
 C        -1.21110661400000   -1.53051325040000   -0.46647961680000
 C         0.16714445530000   -1.44619014390000   -0.49358679140000
 C         0.80022446500000   -0.26994403550000   -0.10296748690000
 C         2.29069181630000   -0.24329394360000   -0.00689275020000
 N         2.91686075220000   -0.54245304670000   -1.17490114490000
 O         2.89538734090000   -0.02552127440000    1.01812938730000
 C        -0.01153191500000    0.80848469570000    0.29021195860000
 C         0.51916519950000    2.12311057950000    0.64653332110000
 C         1.59204008470000    2.68589431660000    0.11076790460000
 N        -1.33129183480000    0.70102317680000    0.34546587090000
 H        -5.28796086750000   -1.28648335970000   -0.03400207190000
 H        -3.89164609850000   -2.35977899420000   -0.51127419140000
 H        -3.77065367230000    0.54616404470000    0.47156040560000
 H        -1.70865859260000   -2.43671802960000   -0.77095839160000
 H         0.75915255580000   -2.30061593380000   -0.79374684970000
 H         2.41053806230000   -0.71955178500000   -2.02368335060000
 H         3.92258347860000   -0.58551736670000   -1.18928503660000
 H        -0.08672491700000    2.66101085700000    1.36206417550000
 H         2.18690769500000    2.19728992730000   -0.64274293760000
 H         1.91626171010000    3.66879305360000    0.40641964510000
$end

$rem
 BASIS = 6-31G*
 GUI = 2
 METHOD = B3LYP
 PRINT_ORBITALS false
 MOLDEN_FORMAT false
$end