$molecule
0 1
 C         3.28263231090000   -2.86451167870000    0.20171847760000
 C         3.18056290170000   -1.62137632030000   -0.24892061700000
 C         1.99269729440000   -0.77697170530000   -0.11330845560000
 C         0.72854110260000   -1.34576996610000   -0.15314887390000
 C        -0.40110145230000   -0.55233570940000   -0.05283614840000
 O        -1.63066432820000   -1.25648435190000   -0.09078486710000
 C        -2.76343475950000   -0.61390142390000    0.04248176570000
 F        -2.88956739340000    0.07157602790000    1.19712583190000
 F        -3.02091486080000    0.28484165830000   -0.92900711680000
 F        -3.76582997650000   -1.48986516220000    0.01575860210000
 C        -0.29238442710000    0.81704826570000    0.06000369420000
 C         0.96559989820000    1.41984798750000    0.07493677530000
 C         1.00299077030000    2.88008217180000    0.16268711310000
 C         1.85467080220000    3.68263786400000   -0.46451712870000
 C         2.12356880530000    0.62221961720000    0.02603898070000
 N         3.37550049420000    1.18854007330000    0.11248994080000
 H         4.17530299000000   -3.44734639090000    0.05291188410000
 H         2.48577330590000   -3.34177814740000    0.74629947310000
 H         4.01567608980000   -1.17489155630000   -0.77439060000000
 H         0.60913243250000   -2.40866505070000   -0.27753376490000
 H        -1.16090967670000    1.45359760660000    0.11955149440000
 H         0.21536780530000    3.31427293360000    0.76675461790000
 H         2.60846741630000    3.31163627560000   -1.13821807500000
 H         1.79072834560000    4.75276489610000   -0.36160977340000
 H         3.39899075900000    2.12348096770000    0.49037981090000
 H         4.10965152990000    0.58352647410000    0.44249074610000
$end

$rem
 BASIS = 6-31G*
 GUI = 2
 METHOD = B3LYP
 PRINT_ORBITALS false
 MOLDEN_FORMAT false
$end