$molecule
0 1
 C            0.05621806580000        4.16378688990000       -0.04730598430000
 C           -0.81122699000000        3.15947048940000       -0.02662887060000
 C           -0.49283863910000        1.73573534220000        0.02446381530000
 C           -1.54309371530000        0.81812849900000       -0.00607588750000
 C           -1.31472400040000       -0.55653018470000        0.03749620030000
 C           -2.37833812090000       -1.54980541030000        0.00612685640000
 C           -3.68629496390000       -1.35560211870000       -0.07033605740000
 F           -4.33980381070000       -0.20178101840000       -0.13635823180000
 F           -4.56969088670000       -2.35028925530000       -0.09262904630000
 C            0.00036247340000       -1.01066530680000        0.11548182280000
 C            1.05716921040000       -0.10880328970000        0.14904023520000
 C            2.43601246170000       -0.65777313020000        0.23320596460000
 O            2.68786711640000       -1.83767858750000        0.27050610260000
 O            3.36638485770000        0.30352965570000        0.27460910430000
 C            4.72798552390000       -0.11982644800000        0.34160388140000
 C            5.27341253510000       -0.46346784880000       -1.03711725880000
 C            0.81435502750000        1.25768430460000        0.10338923190000
 H           -0.27672914090000        5.18658088430000       -0.08679843100000
 H            1.12232989350000        4.01703422890000       -0.02775613740000
 H           -1.87100138630000        3.38048728300000       -0.05265394450000
 H           -2.55159507170000        1.19546335790000       -0.06602962640000
 H           -2.06816985680000       -2.58373223310000        0.04984859560000
 H            0.22288231580000       -2.06637409670000        0.15223608360000
 H            4.79632067020000       -0.99039015290000        1.00228718480000
 H            5.26529629780000        0.72398899720000        0.77969462260000
 H            4.73345278020000       -1.31307200870000       -1.44771197500000
 H            6.32590224570000       -0.72003119870000       -0.95843532430000
 H            5.16243486890000        0.38454544810000       -1.70879979000000
 H            1.64927386190000        1.93749592130000        0.13244048830000
$end

$rem
 BASIS = 6-31G*
 GUI = 2
 METHOD = B3LYP
 PRINT_ORBITALS false
 MOLDEN_FORMAT false
$end