$molecule
0 1
 C           -4.48346399330000        0.38684335140000       -0.11533077160000
 C           -3.30396972750000        0.71415696150000        0.39271904110000
 C           -2.05865694910000       -0.00878506180000        0.12138913360000
 C           -2.08586088960000       -1.39538259970000       -0.00208399180000
 C           -0.92612275370000       -2.10630736420000       -0.24157905640000
 C            0.27306821960000       -1.43549095940000       -0.37120467340000
 C            0.32604092690000       -0.04615733550000       -0.25819091030000
 C            1.61316117200000        0.62932274650000       -0.45275224500000
 C            2.77478621290000        0.18996913300000       -0.00220444350000
 F            2.98948439890000       -0.88592224990000        0.74675606610000
 F            3.93722498940000        0.80397075010000       -0.22547568510000
 C           -0.84218348000000        0.67893124400000        0.00144362190000
 C           -0.82752058310000        2.17056442480000        0.16909941730000
 H           -5.37531041290000        0.94158709990000        0.12155973620000
 H           -4.60210657460000       -0.43457872530000       -0.80226620880000
 H           -3.22881707200000        1.56823895290000        1.05236301630000
 H           -3.02437986720000       -1.91572126780000        0.11432258510000
 H           -0.95574887420000       -3.18181552290000       -0.32939986170000
 H            1.17727792750000       -1.98665799110000       -0.57733330410000
 H            1.64218505110000        1.54166077170000       -1.02871757820000
 H            0.16005891930000        2.59046836230000        0.01315228490000
 H           -1.14034224800000        2.43385401720000        1.17963543620000
 H           -1.52233323290000        2.63724803980000       -0.52792669100000
$end

$rem
 BASIS = 6-31G*
 GUI = 2
 METHOD = B3LYP
 PRINT_ORBITALS false
 MOLDEN_FORMAT false
$end