$molecule
0 1
 C           -4.18154479430000        0.70543157390000       -0.35628807750000
 C           -2.90589200200000        0.70677573640000       -0.71509254150000
 C           -1.87791270670000       -0.15382549740000       -0.12252929000000
 C           -2.19559671900000       -1.46318698880000        0.22514267690000
 C           -1.24260927790000       -2.30045087730000        0.77388124720000
 C            0.04565927540000       -1.84063768710000        0.95367832670000
 C            0.39475289480000       -0.54138821340000        0.58445519850000
 C            1.79915477650000       -0.15999874580000        0.77501575330000
 C            2.57119595740000        0.43184054330000       -0.11816634990000
 F            2.23174132110000        0.81086980860000       -1.34482679720000
 F            3.85614125210000        0.72365371130000        0.08672687420000
 C           -0.57403749450000        0.32597058720000        0.07250308860000
 C           -0.26878258710000        1.76767671440000       -0.20401022920000
 H           -4.90495666850000        1.34447126160000       -0.83335378740000
 H           -4.54984663900000        0.08054722690000        0.44049361450000
 H           -2.57095191190000        1.37109239520000       -1.50074385700000
 H           -3.19750665510000       -1.82558831450000        0.05164856970000
 H           -1.50142633760000       -3.31099289710000        1.05215704940000
 H            0.80256229120000       -2.49183527370000        1.36556590880000
 H            2.27262569450000       -0.45250255550000        1.70085153420000
 H            0.60095282230000        2.09789590960000        0.35873577040000
 H           -1.11478358890000        2.39192998590000        0.07510998910000
 H           -0.06415626740000        1.92184240440000       -1.26364124780000
$end

$rem
 BASIS = 6-31G*
 GUI = 2
 METHOD = B3LYP
 PRINT_ORBITALS false
 MOLDEN_FORMAT false
$end