$molecule
0 1
 C        -3.48796663870000    0.94043952300000   -0.02279677120000
 C        -3.13245816410000   -0.34247224310000    0.01644378390000
 C        -1.78283881640000   -0.85895266960000    0.01153685560000
 C        -0.65431544560000   -0.12990384600000    0.00618960910000
 C         0.65426994870000   -0.72300779500000    0.00176306930000
 C         1.78049098870000   -0.01820068930000   -0.00154375210000
 F         1.86670827370000    1.30814116200000   -0.00142190560000
 F         3.00171241260000   -0.54412361010000   -0.00568704330000
 H        -4.52311395030000    1.23435316550000   -0.01542957020000
 H        -2.76848961550000    1.73957224540000   -0.06548135630000
 H        -3.90845574600000   -1.09662791150000    0.05365542750000
 H        -1.69616361190000   -1.93831186500000    0.01511609610000
 H        -0.69052037950000    0.94926982400000    0.00674300780000
 H         0.74267639170000   -1.79854947870000    0.00124677410000
$end

$rem
 BASIS = 6-31G*
 GUI = 2
 METHOD = B3LYP
 PRINT_ORBITALS false
 MOLDEN_FORMAT false
$end