$molecule
0 1
 C         4.42805053310000    0.32927402250000   -0.38567992840000
 C         3.37355670900000   -0.43445673990000   -0.12446964200000
 C         1.98941912100000    0.00361307500000   -0.00921182390000
 C         1.57509731810000    1.31295882640000   -0.25744480780000
 C         0.25006487880000    1.66630539840000   -0.13055772210000
 C        -0.72186719170000    0.73962688540000    0.24960811330000
 C        -2.12083267340000    1.14070741890000    0.37746735620000
 C        -2.71020246890000    2.06165220970000   -0.37289718270000
 C        -0.31317079910000   -0.57572477340000    0.50816058700000
 C        -1.31725896310000   -1.63437933200000    0.90403439550000
 C        -2.31331468940000   -1.79511529030000   -0.12690792370000
 N        -3.09190219440000   -1.92126157120000   -0.95396268760000
 C         1.01761001060000   -0.92430800890000    0.36699245400000
 H         5.41807244610000   -0.08838582820000   -0.44965812280000
 H         4.35514243670000    1.39168615610000   -0.54222210560000
 H         3.52333672420000   -1.49639506370000    0.03066019560000
 H         2.29434154280000    2.05988271800000   -0.55441907990000
 H        -0.04834590610000    2.68784233930000   -0.31201075440000
 H        -2.70163293310000    0.63293473750000    1.13690546210000
 H        -2.19241376020000    2.56882985530000   -1.16938701920000
 H        -3.74519809580000    2.32189830880000   -0.23490366060000
 H        -1.82353621060000   -1.36223843150000    1.83653020460000
 H        -0.81657530490000   -2.59511613800000    1.05267156310000
 H         1.31972043640000   -1.94602203870000    0.55691243150000
$end

$rem
 BASIS = 6-31G*
 GUI = 2
 METHOD = B3LYP
 PRINT_ORBITALS false
 MOLDEN_FORMAT false
$end