$molecule
0 1
 C        -3.93708528130000   -0.89369033850000    0.25152784170000
 C        -2.92022165870000   -0.05134963070000    0.11658149130000
 C        -1.52247756240000   -0.43347150840000    0.00510340790000
 C        -1.06294639350000   -1.69382792690000   -0.27945360260000
 S         0.63607472720000   -1.79514354770000   -0.38019513550000
 C         0.78299404170000   -0.10214290590000   -0.03582315640000
 C         2.16894699860000    0.36840200260000    0.09690994690000
 O         3.09976292020000   -0.34891316310000   -0.16349236810000
 O         2.36364924270000    1.61727807880000    0.55054463690000
 C        -0.44641294180000    0.49808907080000    0.13941254080000
 C        -0.68956036070000    1.91369067000000    0.42577452200000
 C        -0.22459451520000    2.92161545160000   -0.30269662070000
 H        -4.95067883460000   -0.54002232470000    0.32376417550000
 H        -3.79859050990000   -1.95978617720000    0.30196079190000
 H        -3.10878797210000    1.01359247370000    0.08321484800000
 H        -1.65234581200000   -2.57170471430000   -0.45389340800000
 H         1.53052208240000    2.09637997410000    0.69340438820000
 H        -1.33802287230000    2.10566495100000    1.27256271590000
 H         0.37985988320000    2.76016689180000   -1.18123682290000
 H        -0.45734766840000    3.94524303150000   -0.06366316060000
$end

$rem
 BASIS = 6-31G*
 GUI = 2
 METHOD = B3LYP
 PRINT_ORBITALS false
 MOLDEN_FORMAT false
$end