$molecule
0 1
 C        -4.58827212670000   -1.22959914600000   -0.64690235090000
 C        -3.78700539070000   -0.19702418350000   -0.41443236660000
 C        -2.36802523020000   -0.25150591800000   -0.08463665290000
 C        -1.66349816600000   -1.44595064490000    0.07368527090000
 C        -0.32599127260000   -1.42731879670000    0.40639076750000
 C         0.36828159310000   -0.23432596620000    0.56904579520000
 C         1.81832022640000   -0.28511251770000    0.96100904050000
 C         2.72741688980000   -0.49478083730000   -0.24406833600000
 O         2.36060165220000   -0.80721457460000   -1.33579247700000
 O         4.03948620790000   -0.31675160180000    0.01768019480000
 C        -0.31145005280000    0.97337122050000    0.38403453650000
 C         0.32685731730000    2.29058999890000    0.49233767520000
 C         1.47429851480000    2.63639727850000   -0.07258403630000
 C        -1.67094966940000    0.94054603480000    0.08829732440000
 H        -5.62804230820000   -1.08733308480000   -0.88693471890000
 H        -4.24965389680000   -2.25073172070000   -0.61326588460000
 H        -4.19553883120000    0.80497471910000   -0.47124511680000
 H        -2.16397297860000   -2.39275657860000   -0.05215466960000
 H         0.20066171300000   -2.36129693550000    0.54111723840000
 H         1.98635861690000   -1.13273649150000    1.63432359990000
 H         2.10985687470000    0.63439526370000    1.47592891380000
 H         4.20974550770000   -0.06769360800000    0.93527187110000
 H        -0.24567351320000    3.03109884660000    1.03909714650000
 H         2.04207744770000    1.95232361550000   -0.68090644670000
 H         1.86880009720000    3.63496742560000    0.01647319400000
 H        -2.19452260120000    1.87921560010000   -0.03438962750000
$end

$rem
 BASIS = 6-31G*
 GUI = 2
 METHOD = B3LYP
 PRINT_ORBITALS false
 MOLDEN_FORMAT false
$end