$molecule
0 1
 C        -3.64541746720000    3.12418518710000   -0.94982929200000
 C        -3.67176665260000    2.03664155960000   -0.19026781600000
 C        -2.54943768510000    1.13737395690000   -0.05885741230000
 N        -2.61020983860000    0.00906845000000    0.70530385400000
 C        -1.43343730180000   -0.54486102920000    0.58159809720000
 C        -1.08163920540000   -1.83093732330000    1.14457824230000
 C        -0.37949366970000   -2.76162938330000    0.51470693750000
 N        -0.65133770900000    0.24061761520000   -0.24006214040000
 C         0.72045323410000    0.18149151500000   -0.57811824380000
 O         1.15014402040000    0.67733971770000   -1.57619356680000
 O         1.37851507890000   -0.45620263690000    0.37289749630000
 C         2.81737694400000   -0.66377894620000    0.27335066200000
 C         3.53387375870000    0.68457616510000    0.26931111740000
 C         3.15419648470000   -1.45776765210000    1.53421085270000
 C         3.15057447370000   -1.47080548580000   -0.97937937890000
 N        -1.38120322180000    1.29830170260000   -0.64043623450000
 H        -4.49628179450000    3.77809465010000   -1.03267031630000
 H        -2.76225500650000    3.38119077480000   -1.50896715080000
 H        -4.54221110500000    1.74829655460000    0.38114011030000
 H        -1.52420719710000   -2.02033449370000    2.11217703870000
 H         0.01689708630000   -2.61010157190000   -0.47563394320000
 H        -0.19000657830000   -3.71964673130000    0.96699018890000
 H         3.24227081380000    1.26543092940000    1.14164088470000
 H         3.28300290010000    1.24615602940000   -0.62649020140000
 H         4.60809992390000    0.52596118190000    0.29579946410000
 H         2.88326063680000   -0.88672704330000    2.41790601400000
 H         4.21765470070000   -1.67421404560000    1.56278586490000
 H         2.59887269770000   -2.39183424830000    1.54508089820000
 H         2.88379029460000   -0.91525152800000   -1.87432268420000
 H         2.61215970780000   -2.41610524010000   -0.97381564760000
 H         4.21670144250000   -1.67752204160000   -1.00167438250000
$end

$rem
 BASIS = 6-31G*
 GUI = 2
 METHOD = B3LYP
 PRINT_ORBITALS false
 MOLDEN_FORMAT false
$end