$molecule
0 1
 C            1.27074530650000       -2.82441054890000       -0.45249512620000
 C            1.90419284280000       -1.84659582080000        0.18155688410000
 C            1.51675463780000       -0.44296688200000        0.16477012760000
 C            2.43771754360000        0.56320454860000        0.13946032350000
 S            1.72570113320000        2.12110727480000        0.04679848510000
 C            0.15713310200000        1.43768149570000        0.07008836900000
 C            0.17520930160000        0.07155048400000        0.13848542590000
 C           -0.99723992390000       -0.76895608720000        0.26819529250000
 C           -2.24123380720000       -0.42360649140000       -0.02524328460000
 F           -2.65262101120000        0.73711206630000       -0.52721525720000
 F           -3.29029219940000       -1.22795566990000        0.13601907690000
 H            1.62579274610000       -3.83984063940000       -0.41049263270000
 H            0.39770465360000       -2.64864657920000       -1.05790487660000
 H            2.81476683630000       -2.05994749670000        0.72737301470000
 H            3.50566870420000        0.46942484030000        0.14091693910000
 H           -0.69635453860000        2.08477813380000        0.05538954080000
 H           -0.84724116320000       -1.76615063090000        0.65245979590000
$end

$rem
 BASIS = 6-31G*
 GUI = 2
 METHOD = B3LYP
 PRINT_ORBITALS false
 MOLDEN_FORMAT false
$end