$molecule
0 1
 C            1.26030704770000       -2.83137716370000       -0.43601295860000
 C            1.90809324920000       -1.84385232380000        0.16788005700000
 C            1.52004456010000       -0.44063452000000        0.13870133360000
 C            2.44003355540000        0.56494960950000        0.07815179490000
 S            1.72595710140000        2.12143131620000       -0.02150505790000
 C            0.15836270670000        1.43865791510000        0.04605556420000
 C            0.17815420720000        0.07369391870000        0.13419047730000
 C           -0.99117180340000       -0.76444419600000        0.30172591510000
 C           -2.24104167930000       -0.42365376650000        0.02866680270000
 F           -2.66300158730000        0.72901179010000       -0.48296697300000
 F           -3.28634965640000       -1.22518836350000        0.22448240540000
 H            1.61646510100000       -3.84606761140000       -0.38626658150000
 H            0.37328045830000       -2.66511725550000       -1.02353555940000
 H            2.83132753880000       -2.04880215530000        0.69532848790000
 H            3.50774977260000        0.47099083210000        0.05730199670000
 H           -0.69534730470000        2.08559330480000        0.04072963340000
 H           -0.83317069960000       -1.75540989410000        0.69867694960000
$end

$rem
 BASIS = 6-31G*
 GUI = 2
 METHOD = B3LYP
 PRINT_ORBITALS false
 MOLDEN_FORMAT false
$end