$molecule
0 1
 C         1.58831914160000    2.05242904960000   -0.31978818350000
 C         1.64344577500000    0.89465135780000    0.32332495700000
 C         0.69761173870000   -0.19827165800000    0.17595590310000
 C         1.04101232300000   -1.51974931900000    0.27349729500000
 O         0.00013790080000   -2.32143240200000    0.00000885920000
 C        -1.04088568020000   -1.51991865810000   -0.27336015650000
 C        -0.69773677570000   -0.19837281820000   -0.17566590910000
 C        -1.64381738280000    0.89431941060000   -0.32287563930000
 C        -1.58813274380000    2.05277155970000    0.31898878860000
 H         2.34738296280000    2.80449800000000   -0.18826696220000
 H         0.78911195440000    2.28770832030000   -1.00144484160000
 H         2.48034638040000    0.67612761520000    0.97568441440000
 H         1.97859999060000   -1.98806898860000    0.50118577490000
 H        -1.97838449570000   -1.98838824660000   -0.50110934930000
 H        -2.48144205540000    0.67505198210000   -0.97404436640000
 H        -0.78816038760000    2.28894394830000    0.99943601370000
 H        -2.34745540220000    2.80458181080000    0.18750042770000
$end

$rem
 BASIS = 6-31G*
 GUI = 2
 METHOD = B3LYP
 PRINT_ORBITALS false
 MOLDEN_FORMAT false
$end