$molecule
0 1
 C         3.73444583580000    1.14182693370000   -0.04205452500000
 C         3.12955210480000   -0.03842747850000    0.01589694080000
 C         1.69372563370000   -0.28792011930000    0.01893948720000
 C         0.73318407380000    0.72346307320000   -0.00996052720000
 C        -0.61791087610000    0.40211142420000   -0.00803710250000
 O        -1.60448098540000    1.33088922980000   -0.03258026990000
 C        -1.26108674710000    2.69597013740000   -0.05448975300000
 C        -0.98516943700000   -0.96319561730000    0.02278053250000
 C        -2.34093260980000   -1.48534685500000    0.02533879540000
 C        -3.48284915900000   -0.80754403030000   -0.02270988790000
 C         0.07046861900000   -1.87866018960000    0.05422182060000
 N         1.34839373920000   -1.57564395920000    0.05308520340000
 H         4.80811541790000    1.21901951250000   -0.04051666830000
 H         3.19900906450000    2.07501355250000   -0.09446798750000
 H         3.71390988440000   -0.94708792130000    0.06355597780000
 H         1.05331445230000    1.75120390180000   -0.03235700240000
 H        -2.20733750470000    3.23509260790000   -0.06678022510000
 H        -0.68892849880000    2.95312371160000   -0.95149202320000
 H        -0.69493055240000    2.98329439190000    0.83711928440000
 H        -2.38030832050000   -2.56809360930000    0.06981558020000
 H        -3.52039337980000    0.26425889350000   -0.06998363570000
 H        -4.42797509500000   -1.32510214000000   -0.01635383740000
 H        -0.14860233600000   -2.93937285580000    0.08180352610000
$end

$rem
 BASIS = 6-31G*
 GUI = 2
 METHOD = B3LYP
 PRINT_ORBITALS false
 MOLDEN_FORMAT false
$end