$molecule
0 1
 C         3.50224914200000    1.44176137200000    0.02967546360000
 C         2.78509866350000    0.34799599250000   -0.21148534390000
 C         1.35502580600000    0.26195588950000   -0.08106966400000
 S         0.40389612620000    1.73043881030000    0.04257477880000
 C        -1.07487188070000    0.81796845450000    0.02537477810000
 C        -2.36118164800000    1.32943371080000    0.10014067460000
 C        -3.42023827640000    0.44595951480000    0.07298256720000
 C        -3.19805563310000   -0.92740000630000   -0.02068931560000
 C        -1.92010314150000   -1.43543577120000   -0.08938269460000
 C        -0.82908153760000   -0.56361139590000   -0.07495574290000
 C         0.57322288270000   -0.86658073330000   -0.12507760960000
 C         1.06440581880000   -2.23228242410000   -0.20452587890000
 C         2.13093986380000   -2.70499260510000    0.42817538920000
 H         4.56949700580000    1.45825940270000   -0.10351732150000
 H         3.04143383100000    2.35310956640000    0.37414778450000
 H         3.26802278770000   -0.56120428730000   -0.54575392730000
 H        -2.52045743130000    2.39384900720000    0.17739188160000
 H        -4.43110915310000    0.82097195740000    0.12744309150000
 H        -4.04280887580000   -1.60003538820000   -0.03607127850000
 H        -1.75732007670000   -2.50082740330000   -0.15159823670000
 H         0.46426913280000   -2.89719349030000   -0.81370072280000
 H         2.72129709050000   -2.09404233820000    1.08995789030000
 H         2.43505540750000   -3.73283814250000    0.32495942030000
$end

$rem
 BASIS = 6-31G*
 GUI = 2
 METHOD = B3LYP
 PRINT_ORBITALS false
 MOLDEN_FORMAT false
$end