$molecule
0 1
 C        -4.00006439640000    0.54705200120000   -0.02887812020000
 C        -3.07146535340000   -0.39882419040000    0.05691316150000
 C        -1.62354733940000   -0.23645578840000    0.04018235990000
 C        -0.81716318920000   -1.37533771360000    0.07349318200000
 C         0.56705974640000   -1.33837198670000    0.06080500950000
 C         1.37551337720000   -2.55331054500000    0.10558940540000
 C         0.96688737710000   -3.77165550110000   -0.22508479520000
 C         1.23187033270000   -0.08941634260000    0.02682269080000
 O         2.58273528590000   -0.13349850390000    0.01663736330000
 C         3.34656141340000    1.05496123510000    0.00046256630000
 C         0.43739752880000    1.05444310210000   -0.00509226680000
 F         0.97676529550000    2.29842415910000   -0.04139722610000
 C        -0.95077815470000    0.98291770970000   -0.00068732520000
 F        -1.61078026350000    2.15467707580000   -0.02835870780000
 H        -5.04554927770000    0.28978576240000   -0.00659284940000
 H        -3.77421978000000    1.59313780140000   -0.12421312700000
 H        -3.38466680960000   -1.43199834800000    0.14590266870000
 H        -1.30243851310000   -2.33720676540000    0.12525302530000
 H         2.39764049090000   -2.39932900270000    0.42061666760000
 H        -0.02734929510000   -3.97616299600000   -0.58424837920000
 H         1.62892345660000   -4.61752699620000   -0.16053637960000
 H         4.38437290970000    0.72473117690000    0.00943550580000
 H         3.15534828360000    1.67182090060000    0.88165698240000
 H         3.16221766880000    1.64202783650000   -0.90213163710000
$end

$rem
 BASIS = 6-31G*
 GUI = 2
 METHOD = B3LYP
 PRINT_ORBITALS false
 MOLDEN_FORMAT false
$end