$molecule
0 1
 C         4.15841606840000   -2.05265989860000    0.39833554200000
 C         2.99295033000000   -2.06845603960000   -0.23724094840000
 C         1.94026610800000   -1.05632089480000   -0.13908138430000
 C         0.62236001490000   -1.49719991540000   -0.14305817140000
 C        -0.42245104350000   -0.60102378520000   -0.01453349060000
 O        -1.71510358820000   -1.18280217680000   -0.01524620830000
 C        -2.77941570510000   -0.42126844650000    0.01646713660000
 F        -2.91839260360000    0.30877177220000    1.14172487260000
 F        -2.86515898000000    0.46969309000000   -0.99224204260000
 F        -3.86512615660000   -1.18759631510000   -0.06641850270000
 C        -0.17960098030000    0.75076305130000    0.11780701430000
 C         1.12876200310000    1.22505028000000    0.08908953750000
 C         1.37852613880000    2.65834453250000    0.24896188570000
 C         0.58328378100000    3.62094136030000   -0.19857947420000
 C         2.20371973410000    0.32672279360000   -0.06146406730000
 N         3.49341810040000    0.80353864340000   -0.13157431670000
 H         4.86521483200000   -2.85771398090000    0.28740155060000
 H         4.43047001910000   -1.26975361210000    1.08586747610000
 H         2.74021554900000   -2.91990511010000   -0.85748354090000
 H         0.39997333250000   -2.54866758790000   -0.22482616700000
 H        -0.97702327850000    1.46119450730000    0.25927321940000
 H         2.27974853380000    2.91975312760000    0.78979816070000
 H        -0.31172987000000    3.41026888900000   -0.75924034890000
 H         0.80665525290000    4.66046581180000   -0.03065565000000
 H         3.59358740110000    1.75724364180000   -0.43863493110000
 H         4.16824079230000    0.16297813900000   -0.52079022100000
$end

$rem
 BASIS = 6-31G*
 GUI = 2
 METHOD = B3LYP
 PRINT_ORBITALS false
 MOLDEN_FORMAT false
$end