$molecule
0 1
 C        -4.39452582080000   -0.02986548480000   -0.13334698250000
 C        -3.25179074480000    0.64628788420000   -0.11961096300000
 C        -1.91056032720000    0.08462549050000   -0.02924030340000
 C        -1.65355556340000   -1.28656851390000    0.04715921140000
 C        -0.36380015260000   -1.76040187330000    0.15361959250000
 C         0.73421274960000   -0.89968868130000    0.16901549470000
 C         2.08340777030000   -1.43988640490000    0.36007609470000
 C         2.51565572220000   -2.57781365060000   -0.16851050880000
 C         0.48700902870000    0.47889554260000    0.06552820920000
 C         1.56388839520000    1.51085441760000    0.00359211770000
 O         1.43957069810000    2.61180532560000    0.46468232750000
 O         2.68987270160000    1.16592315030000   -0.65172470440000
 C        -0.81726456710000    0.94802924690000   -0.01396041290000
 H        -5.34131289380000    0.47734883070000   -0.20171022100000
 H        -4.44088213830000   -1.10394585270000   -0.07679841520000
 H        -3.27957124380000    1.72718572130000   -0.17687415850000
 H        -2.47122910120000   -1.99007437360000    0.03857177680000
 H        -0.19177905670000   -2.82171356350000    0.25486698720000
 H         2.74084311230000   -0.85876411570000    0.99623205530000
 H         1.89958708470000   -3.17467090740000   -0.82080295820000
 H         3.50855609900000   -2.94701164400000    0.02142076160000
 H         2.66289424430000    0.25424820150000   -0.97679348760000
 H        -0.96631441460000    2.01649900400000   -0.07306454430000
$end

$rem
 BASIS = 6-31G*
 GUI = 2
 METHOD = B3LYP
 PRINT_ORBITALS false
 MOLDEN_FORMAT false
$end