$molecule
0 1
 C        -3.49585166220000    1.48810686030000   -0.11805551910000
 C        -2.94844637220000    0.28521969620000    0.01343508690000
 C        -1.52684812380000   -0.02645131990000    0.01495606900000
 C        -0.52382354060000    0.94441372450000    0.01626948310000
 C         0.82612484390000    0.62708285810000    0.01275393410000
 O         1.80300677040000    1.57432437090000    0.02250071450000
 C         1.44452704570000    2.93380603050000    0.07170478520000
 C         1.23220109850000   -0.72813213890000    0.00613065100000
 C         2.60962989930000   -1.19610082090000   -0.00517513200000
 C         3.72677722170000   -0.48366784370000   -0.10846199540000
 C         0.22998677270000   -1.69768673920000    0.01612645140000
 C        -1.10248512380000   -1.35443901560000    0.02114129530000
 F        -2.01996494490000   -2.35099568480000    0.02752513840000
 H        -4.56433767230000    1.61549362960000   -0.11024166310000
 H        -2.91708305860000    2.38725474200000   -0.24405783460000
 H        -3.59428314220000   -0.57645727920000    0.12064634950000
 H        -0.82857876090000    1.97692444190000    0.02573351980000
 H         2.38557665950000    3.48201402430000    0.09433235740000
 H         0.87102773030000    3.16868839210000    0.97405211140000
 H         0.87587385970000    3.23498359480000   -0.81402725270000
 H         2.69329667430000   -2.27422849000000    0.07188489400000
 H         3.72868659540000    0.58569384870000   -0.19718133150000
 H         4.68741283220000   -0.97189367990000   -0.10928486780000
 H         0.49451569920000   -2.74417724550000    0.01731138200000
$end

$rem
 BASIS = 6-31G*
 GUI = 2
 METHOD = B3LYP
 PRINT_ORBITALS false
 MOLDEN_FORMAT false
$end