$molecule
0 1
 C         4.07784673220000   -1.92085546000000    0.29365945340000
 C         4.11778842990000   -0.60401536880000    0.13682530740000
 C         2.92753130430000    0.23322229570000    0.02182649490000
 C         3.04764277960000    1.62313328570000   -0.07617184250000
 C         1.89865360100000    2.38856053230000   -0.17291644650000
 C         0.66969401810000    1.75460411940000   -0.17021610990000
 C         0.64086717080000    0.36145855240000   -0.07405141330000
 C        -0.64086283650000   -0.36138773580000   -0.07407154440000
 C        -0.66964336110000   -1.75452073750000   -0.17045497340000
 C        -1.89857380540000   -2.38852969850000   -0.17312575350000
 C        -3.04757993200000   -1.62316063560000   -0.07613248320000
 C        -2.92751898820000   -0.23325463380000    0.02201098820000
 C        -4.11782105520000    0.60389471260000    0.13717060020000
 C        -4.07799867420000    1.92083471790000    0.29319405150000
 N        -1.74303555760000    0.37060499440000    0.01765069880000
 N         1.74302289530000   -0.37058264450000    0.01749263910000
 H         4.97158011870000   -2.51467522710000    0.37945163800000
 H         3.13357758490000   -2.43459936600000    0.34214718180000
 H         5.06260455720000   -0.07785042860000    0.09263196370000
 H         4.02398366670000    2.08444535240000   -0.07360921710000
 H         1.96225284470000    3.46504868750000   -0.24974108360000
 H        -0.25848994420000    2.29621801200000   -0.24317627270000
 H         0.25855938640000   -2.29607858010000   -0.24359556600000
 H        -1.96213619050000   -3.46500864290000   -0.25010938750000
 H        -4.02390166340000   -2.08451299410000   -0.07352305730000
 H        -5.06258646140000    0.07757363080000    0.09374462200000
 H        -3.13378762760000    2.43475840170000    0.34088159020000
 H        -4.97178279140000    2.51456187470000    0.37910222330000
$end

$rem
 BASIS = 6-31G*
 GUI = 2
 METHOD = B3LYP
 PRINT_ORBITALS false
 MOLDEN_FORMAT false
$end