$molecule
0 1
 C         2.81526306280000    0.77164810140000    0.44085071560000
 C         2.21351784980000   -0.25862483490000   -0.13832348770000
 C         0.79182972400000   -0.52636142670000   -0.12789328270000
 N         0.35619375350000   -1.80080966100000   -0.26744868070000
 N        -0.91393062980000   -1.84078793420000   -0.15787727430000
 N        -1.36699612330000   -0.61213064270000    0.05792124590000
 C        -2.76899251210000   -0.35938071480000    0.20199275530000
 C        -0.33572331530000    0.27830485540000    0.07651338670000
 C        -0.56448076280000    1.69665736960000    0.22554769520000
 C         0.16976509180000    2.64387460430000   -0.34442887180000
 H         3.88628197470000    0.87638230850000    0.41919152750000
 H         2.26807681380000    1.53627450110000    0.96603668560000
 H         2.78988685370000   -1.03654175760000   -0.62068532010000
 H        -3.28294501320000   -1.31058440530000    0.07792184960000
 H        -3.11289206490000    0.34481196440000   -0.55769792490000
 H        -2.98930365190000    0.04422392400000    1.19254898860000
 H        -1.42792528010000    1.96504666930000    0.82301213320000
 H         1.01340749610000    2.40686912780000   -0.96936898390000
 H        -0.05789690400000    3.68683502040000   -0.20848275390000
$end

$rem
 BASIS = 6-31G*
 GUI = 2
 METHOD = B3LYP
 PRINT_ORBITALS false
 MOLDEN_FORMAT false
$end