$molecule
0 1
 C         3.66682168190000    0.01075783190000    0.28694911950000
 C         2.47532331830000    0.48456238220000   -0.05672213960000
 C         1.22894824300000   -0.27409158080000   -0.06030170110000
 C         1.20197182640000   -1.66641416520000   -0.07142085690000
 C        -0.00007749750000   -2.35014089520000   -0.07944320850000
 C        -1.20206641180000   -1.66632547010000   -0.07138632440000
 C        -1.22896712230000   -0.27400180290000   -0.06020137900000
 C        -2.47530277980000    0.48474441130000   -0.05651046530000
 C        -3.66695638790000    0.01092382180000    0.28682295320000
 C         0.00001866850000    0.41241031470000   -0.06679321070000
 C         0.00004172000000    1.82546598020000   -0.05644842550000
 N         0.00025865590000    2.97346754050000   -0.05236917220000
 H         4.54133482110000    0.63761785040000    0.26980525630000
 H         3.81968044620000   -1.00481184280000    0.61147694210000
 H         2.38052313050000    1.52551140230000   -0.33932410240000
 H         2.12921751010000   -2.21672471180000   -0.09550647050000
 H        -0.00012875900000   -3.43015732600000   -0.09946033150000
 H        -2.12934274780000   -2.21658018140000   -0.09554262890000
 H        -2.38038994940000    1.52581302730000   -0.33880123780000
 H        -3.82006408550000   -1.00470317740000    0.61078284390000
 H        -4.54150833990000    0.63771634380000    0.26935369460000
$end

$rem
 BASIS = 6-31G*
 GUI = 2
 METHOD = B3LYP
 PRINT_ORBITALS false
 MOLDEN_FORMAT false
$end