$molecule
0 1
 C        -6.30590547230000    0.75671672700000    0.03720008930000
 C        -5.33581897060000   -0.15470858690000    0.00781099760000
 C        -3.92738956220000    0.13290060510000    0.00753081790000
 C        -3.26944887930000    1.33971015180000    0.03469390000000
 C        -1.87717323330000    1.21805188490000    0.02554148670000
 C        -1.44222690780000   -0.08708480560000   -0.00888757350000
 C        -0.10296726100000   -0.56860327290000   -0.02485856740000
 C         0.33038807250000   -1.87418492280000   -0.06599148500000
 C         1.72226612300000   -1.99270120290000   -0.06856133520000
 C         2.37463825720000   -0.78230100980000   -0.02961531780000
 C         3.79392946000000   -0.59237608600000   -0.02109119490000
 C         4.43153131120000    0.57317270560000    0.02103000240000
 F         3.87424225060000    1.77773822970000    0.06265863880000
 F         5.75645525450000    0.69144053530000    0.02838224810000
 S         1.24030641670000    0.53550150500000    0.01094094570000
 S        -2.79113052160000   -1.18385485160000   -0.03122475120000
 H        -7.34207412420000    0.46864745900000    0.03644718960000
 H        -6.10076871710000    1.81265447620000    0.06326375520000
 H        -5.58719593270000   -1.20717612930000   -0.01811741210000
 H        -3.77822724200000    2.28591160530000    0.06044182690000
 H        -1.19712690680000    2.05167236470000    0.04322615270000
 H        -0.34774087220000   -2.70852581030000   -0.09274852990000
 H         2.24245540380000   -2.93341444690000   -0.09771650970000
 H         4.40593786480000   -1.48124716480000   -0.05037444950000
$end

$rem
 BASIS = 6-31G*
 GUI = 2
 METHOD = B3LYP
 PRINT_ORBITALS false
 MOLDEN_FORMAT false
$end