$molecule
0 1
 C         3.54472653350000    0.78851901190000   -1.42023114680000
 N         3.08593099970000    1.15997572370000   -0.09608518380000
 C         1.73347814240000    0.99209438090000    0.18796252470000
 C         0.92023017910000    2.03327222680000    0.58978872590000
 C        -0.44605017040000    1.84155374940000    0.78336586650000
 C        -1.04573384310000    0.62005313180000    0.56959827560000
 C        -2.50431684840000    0.55506408160000    0.63612573360000
 C        -3.29996083800000   -0.04996370930000   -0.22958300680000
 F        -2.94142788130000   -0.73392380810000   -1.31251686590000
 F        -4.63295689110000   -0.04116902160000   -0.14358474630000
 C         1.17721166080000   -0.32542636210000    0.14062724390000
 C        -0.22138446460000   -0.51164034140000    0.30980461010000
 C        -0.72935283380000   -1.82694482830000    0.30687112420000
 C         0.09106098150000   -2.90748202890000    0.13701496080000
 C         1.47125554600000   -2.72535078330000   -0.00047902540000
 C         1.99918053420000   -1.46362707050000    0.01192375260000
 C         3.74729371040000    2.34451592120000    0.39621501730000
 H         2.89368913720000    0.03433296600000   -1.85303258390000
 H         4.56225589610000    0.39540305280000   -1.36254594180000
 H         3.55113849520000    1.66020547680000   -2.08867783390000
 H         1.31810423910000    3.02841975570000    0.70799092410000
 H        -1.05761844390000    2.69456745010000    1.04072052380000
 H        -2.99372947700000    1.12229985440000    1.41481067190000
 H        -1.78208713430000   -1.98521564520000    0.47938405850000
 H        -0.31960546290000   -3.90627930850000    0.14147961680000
 H         2.11890179490000   -3.58513664940000   -0.08946649230000
 H         3.06855643510000   -1.32989799050000   -0.02739786880000
 H         4.82396383800000    2.17669174800000    0.34389108560000
 H         3.47373780680000    2.51053903290000    1.43633288820000
 H         3.51464290080000    3.24561612390000   -0.18836226210000
$end

$rem
 BASIS = 6-31G*
 GUI = 2
 METHOD = B3LYP
 PRINT_ORBITALS false
 MOLDEN_FORMAT false
$end