$molecule
0 1
 C        -1.35994609190000   -2.65375560040000    1.37255775280000
 C        -0.87826852710000   -1.42503002520000    1.24341176860000
 C        -1.51438203070000   -0.34584365710000    0.49056822480000
 C        -2.89874564100000   -0.29032784150000    0.33884610530000
 C        -3.50292419190000    0.75054442650000   -0.33932611840000
 C        -2.73082423330000    1.76978008210000   -0.87232836010000
 C        -1.35653729360000    1.73555790740000   -0.72458703000000
 C        -0.73617645070000    0.68567653440000   -0.05750906910000
 C         0.73586856530000    0.68589670310000    0.05717048480000
 C         1.35586238190000    1.73731625360000    0.72216332010000
 C         2.73008562500000    1.77206576280000    0.87026721010000
 C         3.50245070840000    0.75152471030000    0.34014605460000
 C         2.89865953990000   -0.29079961320000   -0.33611508950000
 C         1.51438144890000   -0.34657609660000   -0.48877809620000
 C         0.87844381160000   -1.42611254640000   -1.24117626430000
 C         1.36194175990000   -2.65365400960000   -1.37486725090000
 H        -0.84471070540000   -3.40234896710000    1.94940185410000
 H        -2.27294327080000   -2.96811500040000    0.89522688340000
 H         0.06417449520000   -1.17004598830000    1.71168255700000
 H        -3.50764452630000   -1.06563696400000    0.77912350390000
 H        -4.57774851110000    0.77309922640000   -0.44519775690000
 H        -3.19813004540000    2.58901585770000   -1.39867092060000
 H        -0.74564910280000    2.52294922010000   -1.14352158590000
 H         0.74476076650000    2.52559595830000    1.13912032980000
 H         3.19712288840000    2.59264119680000    1.39475407780000
 H         4.57720511820000    0.77426660210000    0.44669188570000
 H         3.50793383140000   -1.06695289270000   -0.77433438920000
 H        -0.06601069460000   -1.17211706720000   -1.70597268280000
 H         2.27710721190000   -2.96801701660000   -0.90168147070000
 H         0.84585077810000   -3.40155489750000   -1.95190911200000
$end

$rem
 BASIS = 6-31G*
 GUI = 2
 METHOD = B3LYP
 PRINT_ORBITALS false
 MOLDEN_FORMAT false
$end