$molecule
0 1
 C         4.17158173680000   -1.33212830900000    0.00272812110000
 C         3.53448812720000   -0.16877553080000   -0.00164365950000
 C         2.09432282800000   -0.02673570990000    0.00010180050000
 C         1.08300279410000   -1.02482986500000    0.00518106480000
 C        -0.08769827150000   -0.30879044510000    0.00336051280000
 C        -1.45313880980000   -0.76261680670000    0.00553900180000
 C        -2.51779822610000    0.03142497480000    0.00002770770000
 F        -2.52350007390000    1.34882223750000   -0.00789015170000
 F        -3.76336441170000   -0.42380822210000    0.00172888110000
 O         0.20393792250000    1.00637787950000   -0.00207572730000
 N         1.53902163620000    1.16593900980000   -0.00403073820000
 H         5.24631998450000   -1.38297498500000    0.00076768850000
 H         3.64918011050000   -2.27400534710000    0.00838946830000
 H         4.07128101560000    0.76864366510000   -0.00720303030000
 H         1.19721427280000   -2.08728585140000    0.00932525870000
 H        -1.61446369770000   -1.82787899440000    0.01155937430000
$end

$rem
 BASIS = 6-31G*
 GUI = 2
 METHOD = B3LYP
 PRINT_ORBITALS false
 MOLDEN_FORMAT false
$end