$molecule
0 1
 C            2.82306648110000       -2.68471031650000        0.62446122240000
 C            2.34617550990000       -1.71532195870000       -0.14383842510000
 C            0.98991260560000       -1.17818564320000       -0.06342171540000
 C           -0.07688316050000       -2.01934516560000        0.25431659540000
 C           -1.38013844150000       -1.56699519210000        0.25827616160000
 C           -1.63953010850000       -0.24659384060000       -0.08739161200000
 C           -3.04433805960000        0.28301198270000       -0.09883549430000
 F           -3.97208090390000       -0.68239366770000       -0.14769665130000
 F           -3.31820701360000        1.01367597700000        1.00076655580000
 F           -3.27904924030000        1.09218141820000       -1.14640978000000
 C           -0.59915065200000        0.61186460030000       -0.40281053760000
 C            0.71870719440000        0.16592228660000       -0.37415471390000
 C            1.76571667610000        1.14512681080000       -0.66822582880000
 C            2.90209547750000        1.28886968280000       -0.00635958050000
 F            3.31082614740000        0.59181477370000        1.04360973440000
 F            3.80957856050000        2.21477958860000       -0.29721585790000
 H            3.82879175670000       -3.04889574220000        0.50942400600000
 H            2.24189235510000       -3.12771844680000        1.41526700540000
 H            2.98044782260000       -1.26526088770000       -0.89711507100000
 H            0.12485305780000       -3.05478060480000        0.47911868410000
 H           -2.19285772660000       -2.23205484960000        0.50512671140000
 H           -0.81191273290000        1.63857291580000       -0.66082988980000
 H            1.57135319540000        1.86008042030000       -1.45388476010000
$end

$rem
 BASIS = 6-31G*
 GUI = 2
 METHOD = B3LYP
 PRINT_ORBITALS false
 MOLDEN_FORMAT false
$end