$molecule
0 1
 C         3.63353151140000    1.67492338930000   -0.39336916190000
 C         2.87688632060000    0.76459640080000    0.20469875520000
 C         1.41706364330000    0.72592463820000    0.13100516040000
 C         0.69803047570000    1.90105546640000    0.14220764170000
 C        -0.69568758510000    1.90190141690000    0.14243351930000
 C        -1.41602093610000    0.72759882270000    0.13172368130000
 C        -2.87583815620000    0.76799688950000    0.20580482790000
 C        -3.63143152420000    1.67722941880000   -0.39521625020000
 C        -0.71159156630000   -0.50968524370000    0.07779263080000
 C        -1.38602747380000   -1.74559305360000   -0.01902830770000
 C        -0.70199979480000   -2.92634496050000   -0.09685816180000
 C         0.69807291230000   -2.92723526970000   -0.09754426950000
 C         1.38376189190000   -1.74739523700000   -0.02030158720000
 C         0.71111835760000   -0.51056290440000    0.07724069320000
 H         4.70538549020000    1.67691366260000   -0.29095561890000
 H         3.21336108230000    2.44105847580000   -1.02357278170000
 H         3.34623857510000   -0.00322101180000    0.80599918340000
 H         1.22308222760000    2.84361334600000    0.19356788550000
 H        -1.21969043300000    2.84505276960000    0.19376934430000
 H        -3.34577436040000    0.00263540180000    0.80982421150000
 H        -3.21020493420000    2.44072805490000   -1.02796105330000
 H        -4.70328585700000    1.68092140030000   -0.29281800800000
 H        -2.46468187710000   -1.75527243450000   -0.05136384820000
 H        -1.23713622160000   -3.86193033430000   -0.17044794540000
 H         1.23191862490000   -3.86350147120000   -0.17183737100000
 H         2.46235979890000   -1.75867143070000   -0.05374218700000
$end

$rem
 BASIS = 6-31G*
 GUI = 2
 METHOD = B3LYP
 PRINT_ORBITALS false
 MOLDEN_FORMAT false
$end