$molecule
0 1
 C        -7.28060400370000   -1.08301007140000   -0.50636863720000
 C        -6.37001538990000   -0.24008025850000   -0.02332025020000
 C        -4.94684594750000   -0.39575885180000   -0.14629914970000
 C        -4.21218976220000   -1.38629106590000   -0.75323588380000
 C        -2.83076370880000   -1.19279863930000   -0.66570023300000
 C        -2.48002005280000   -0.04713582150000    0.01150502140000
 C        -1.17621444110000    0.45122281580000    0.28273622610000
 C        -0.82397004260000    1.59934613240000    0.95484447030000
 C         0.55609132760000    1.79166163840000    1.04337583980000
 C         1.28893849080000    0.79291499160000    0.44025929820000
 C         2.70540739650000    0.67783201300000    0.34741421440000
 C         3.65947375000000    1.54466469910000    0.83285525570000
 C         4.96732393780000    1.12786594230000    0.56821195110000
 C         5.04219245760000   -0.05912203690000   -0.12079606750000
 C         6.23208851820000   -0.74445294930000   -0.53795446910000
 C         6.25661662190000   -1.89460439190000   -1.20700578540000
 S         3.44998945400000   -0.67612604860000   -0.45034668040000
 S         0.23890267450000   -0.41051712660000   -0.25173882480000
 S        -3.89662929310000    0.80589167480000    0.54952489820000
 H        -8.33275316250000   -0.90180820550000   -0.37677416850000
 H        -7.00913694880000   -1.97455441090000   -1.04421224930000
 H        -6.68800291470000    0.64577063290000    0.51125771330000
 H        -4.65892698220000   -2.22933652480000   -1.24804147960000
 H        -2.09839097500000   -1.86282931900000   -1.08104778890000
 H        -1.55431354200000    2.27360372700000    1.36651127380000
 H         1.00726891010000    2.63477730130000    1.53378211770000
 H         3.41767448660000    2.44912609880000    1.36073027900000
 H         5.83972874210000    1.67938021140000    0.87233635180000
 H         7.15573340890000   -0.24962965070000   -0.26457395750000
 H         5.34663896660000   -2.39975001750000   -1.48641187140000
 H         7.18106903420000   -2.36311420570000   -1.49378371420000
$end

$rem
 BASIS = 6-31G*
 GUI = 2
 METHOD = B3LYP
 PRINT_ORBITALS false
 MOLDEN_FORMAT false
$end