$molecule
0 1
 C         3.54698119730000   -1.20220562330000    0.00029973640000
 C         2.41971193210000   -1.90728852020000   -0.00059996470000
 C         1.07613146070000   -1.36328104640000   -0.00016280310000
 C        -0.01724745470000   -2.21078803850000    0.00025323640000
 C        -1.34269750300000   -1.76572747800000    0.00067637320000
 C        -1.67620195490000   -0.42595491180000    0.00060600980000
 C        -3.02703010050000    0.10386490810000    0.00097677260000
 C        -4.15187574230000   -0.60484389970000   -0.00149736150000
 C        -0.58572983090000    0.48125615690000    0.00029758280000
 N        -0.67059703480000    1.81127443960000    0.00028320230000
 S         0.81223841330000    2.42634033780000   -0.00019044640000
 N         1.63797283050000    1.04721171000000   -0.00040272000000
 C         0.78143278080000    0.02555319610000   -0.00012211400000
 H         4.50841545020000   -1.68733431880000   -0.00014347190000
 H         3.53561516640000   -0.12677559790000    0.00141543700000
 H         2.46187922840000   -2.99031919860000   -0.00166724100000
 H         0.16099754950000   -3.27718492820000    0.00036155800000
 H        -2.12725246930000   -2.50655746580000    0.00112962690000
 H        -3.07084510220000    1.18482748590000    0.00309733190000
 H        -4.16393427290000   -1.68156451930000   -0.00411820000000
 H        -5.11384640560000   -0.12243596800000   -0.00102538950000
$end

$rem
 BASIS = 6-31G*
 GUI = 2
 METHOD = B3LYP
 PRINT_ORBITALS false
 MOLDEN_FORMAT false
$end