$molecule
0 1
 C        -3.02417182130000    0.59700738570000   -0.39777388040000
 C        -2.33911045730000   -0.34590811090000    0.23390844480000
 C        -0.91006323300000   -0.58366573040000    0.12934117860000
 N        -0.46933050720000   -1.83074787270000    0.17266578730000
 N         0.86055910040000   -1.75955289540000    0.01861777890000
 C         1.30111562420000   -0.48592877910000   -0.08514774860000
 N         2.64051553380000   -0.19183712390000   -0.21579745800000
 C         0.17487844560000    0.33430858070000   -0.01216146390000
 C         0.11347611160000    1.77541562280000    0.02349121470000
 C         1.13378178920000    2.60277212930000    0.23305048520000
 H        -4.09065271730000    0.68716251060000   -0.27852194770000
 H        -2.56251053900000    1.29820542390000   -1.07189533740000
 H        -2.85547279450000   -1.06974876330000    0.85081467850000
 H         1.41127251680000   -2.60291222190000    0.02914148570000
 H         3.20564623000000   -0.95647924300000   -0.55711385550000
 H         2.81926577130000    0.67572961560000   -0.69973185050000
 H        -0.87565433650000    2.19225963570000   -0.09849421510000
 H         2.13568854890000    2.26233294660000    0.42840723810000
 H         0.98648524040000    3.66924295460000    0.25193113130000
$end

$rem
 BASIS = 6-31G*
 GUI = 2
 METHOD = B3LYP
 PRINT_ORBITALS false
 MOLDEN_FORMAT false
$end