$molecule
0 1
 C        -4.03445951600000   -2.25462209730000    0.19992901280000
 C        -4.14097492780000   -0.95263709200000   -0.03365373710000
 C        -3.05651402120000    0.02447884280000   -0.04047069100000
 C        -3.37669013280000    1.38401435210000   -0.06726424060000
 C        -2.38027419070000    2.34209923840000   -0.06158250980000
 C        -1.05255272780000    1.96316425470000   -0.03815192020000
 C        -0.69668448570000    0.60991636390000   -0.02637112410000
 C         0.71401576080000    0.27021117500000   -0.01377093350000
 C         1.23746288140000   -0.96361028240000   -0.09696518620000
 C         2.64088847690000   -1.29673297020000   -0.08578783120000
 C         3.67906566690000   -0.47517544280000    0.02461218540000
 F         3.66122021350000    0.84706143890000    0.15042895040000
 F         4.94434303970000   -0.89289763430000    0.02409579820000
 C        -1.71470564960000   -0.34300329940000   -0.02540844710000
 H        -4.89791609400000   -2.89737232510000    0.18917390600000
 H        -3.09583398270000   -2.73414142910000    0.41920375320000
 H        -5.12159843010000   -0.53429781960000   -0.22609883000000
 H        -4.41431064060000    1.68551586610000   -0.08459809170000
 H        -2.64106215100000    3.39030898200000   -0.07658238330000
 H        -0.27670992400000    2.71501622920000   -0.03587793150000
 H         1.37609248880000    1.12111057880000    0.06278133570000
 H         0.58771255570000   -1.82162540510000   -0.18776229390000
 H         2.89826035460000   -2.34180748210000   -0.17648036730000
 H        -1.46083208400000   -1.39033818250000   -0.01685977520000
$end

$rem
 BASIS = 6-31G*
 GUI = 2
 METHOD = B3LYP
 PRINT_ORBITALS false
 MOLDEN_FORMAT false
$end