$molecule
0 1
 C         4.80476272850000    0.21011563160000   -0.00623062020000
 C         3.75672738260000   -0.60591058290000    0.00119176450000
 C         2.35250323580000   -0.22102822520000    0.00178267900000
 C         1.37588003670000   -1.22030950250000    0.00198361260000
 C         0.03117889720000   -0.91738062850000    0.00165101110000
 C        -0.39438189320000    0.41280264680000    0.00138060270000
 C        -1.79035733760000    0.81312264010000    0.00067347550000
 C        -2.87033142470000    0.04492351620000   -0.00079773610000
 F        -2.93413514210000   -1.28142860800000   -0.00175987540000
 F        -4.11009793790000    0.53428073680000   -0.00156736910000
 C         0.58004940520000    1.41563249610000    0.00185389560000
 C         1.92216384610000    1.10780895490000    0.00202019400000
 H         5.81060017000000   -0.17321385170000   -0.00610020060000
 H         4.71130189980000    1.28243356860000   -0.01300689240000
 H         3.92761913590000   -1.67576245040000    0.00638892070000
 H         1.68293402870000   -2.25660644540000    0.00215553350000
 H        -0.68787555430000   -1.72011424080000    0.00171937600000
 H        -1.98664233480000    1.87595144060000    0.00117338630000
 H         0.27115143970000    2.45117991520000    0.00211128220000
 H         2.64492558620000    1.90861465930000    0.00262693460000
$end

$rem
 BASIS = 6-31G*
 GUI = 2
 METHOD = B3LYP
 PRINT_ORBITALS false
 MOLDEN_FORMAT false
$end