$molecule
0 1
 C        -3.82549953430000    1.41019937910000   -0.31258198150000
 C        -3.38468648710000    0.20102545740000    0.01391062060000
 C        -1.99266267620000   -0.22371765720000    0.07866807320000
 C        -1.69903696170000   -1.56933869750000    0.31588598430000
 C        -0.39653558410000   -2.01720836240000    0.35783281990000
 C         0.67842037620000   -1.14563878090000    0.17798603880000
 C         2.02879667420000   -1.70356512690000    0.11510809470000
 C         2.99775022390000   -1.25671513270000   -0.67462657470000
 C         0.39274488600000    0.21727974240000   -0.00332213920000
 C         1.43921184770000    1.28216595260000   -0.06442964330000
 O         1.41121532570000    2.19201894120000   -0.84501885920000
 O         2.39501464970000    1.21848475510000    0.88577201830000
 C        -0.92199278410000    0.65479921340000   -0.07339012560000
 H        -4.87853915940000    1.63163756810000   -0.33891243220000
 H        -3.16653590690000    2.22070142660000   -0.57162143840000
 H        -4.10202820820000   -0.57554913510000    0.25072101180000
 H        -2.50825423600000   -2.27201039480000    0.45505529850000
 H        -0.19555930850000   -3.06785618560000    0.51159273510000
 H         2.18700089160000   -2.59348523870000    0.71279938780000
 H         2.86219867700000   -0.40801044710000   -1.32475758040000
 H         3.96168624090000   -1.73440199170000   -0.70876367530000
 H         2.32461408990000    0.41596101970000    1.41979692520000
 H        -1.09218030540000    1.70815790500000   -0.23105315400000
$end

$rem
 BASIS = 6-31G*
 GUI = 2
 METHOD = B3LYP
 PRINT_ORBITALS false
 MOLDEN_FORMAT false
$end