$molecule
0 1
 C           -2.57307658050000       -1.99816667150000        1.34300008350000
 C           -2.73142692750000       -0.94497971430000        0.55262088140000
 C           -1.67062610300000       -0.01063772330000        0.17191659450000
 C           -2.01524366120000        1.32462348250000       -0.02632370150000
 C           -1.04841216450000        2.26275967880000       -0.33724096110000
 Cl          -1.50499945170000        3.91117161330000       -0.58434473290000
 C            0.27989176560000        1.89877093840000       -0.45141467350000
 C            0.64798420610000        0.56919090320000       -0.26479485810000
 C            2.05585700920000        0.20101438010000       -0.40831433220000
 C            2.71259651980000       -0.65234673870000        0.36026622470000
 F            2.28015940670000       -1.27673246530000        1.43942486600000
 F            3.99560334480000       -0.95926162760000        0.16613466890000
 C           -0.32856828990000       -0.39539876210000        0.02145067000000
 O            0.06322984160000       -1.70712773120000        0.11863722800000
 C           -0.28420397000000       -2.51817480080000       -0.99646920390000
 C            0.10970043070000       -3.94922754150000       -0.67577492030000
 H           -3.40549243090000       -2.62671510770000        1.61121635960000
 H           -1.61259726060000       -2.26046765600000        1.75167945030000
 H           -3.71735424170000       -0.68486275210000        0.18652736020000
 H           -3.04541062320000        1.62870531830000        0.07836949930000
 H            1.03061706920000        2.63845353420000       -0.68023420940000
 H            2.61817805290000        0.67508048020000       -1.19865510080000
 H            0.25619455590000       -2.15985582650000       -1.88602078940000
 H           -1.36160843820000       -2.44855921760000       -1.19656614270000
 H            1.16819318310000       -3.99571125510000       -0.43573745760000
 H           -0.09284969530000       -4.58833873710000       -1.53037733820000
 H           -0.45450975370000       -4.30673808680000        0.18078586530000
$end

$rem
 BASIS = 6-31G*
 GUI = 2
 METHOD = B3LYP
 PRINT_ORBITALS false
 MOLDEN_FORMAT false
$end