$molecule
0 1
 C        -4.04060384490000    0.02323848720000    0.17656413450000
 C        -2.91228602030000    0.71799839330000    0.27578978050000
 C        -1.54834680190000    0.22778324670000    0.13862096060000
 C        -0.49371795980000    1.12669506000000    0.31649644880000
 C         0.83786130270000    0.76039992540000    0.22651327250000
 O         1.78982654580000    1.74296033680000    0.43139154960000
 C         2.29778874460000    2.29977556110000   -0.76291579680000
 C         1.18756518310000   -0.56959124390000   -0.06073024070000
 C         2.55631300340000   -1.06827524380000   -0.13998389500000
 C         3.61568037850000   -0.54257760070000    0.46327970540000
 C         0.14309818600000   -1.46833973270000   -0.27543629850000
 C        -1.17535542430000   -1.08222325480000   -0.17246229910000
 F        -2.10698615980000   -2.03620730160000   -0.39240496750000
 H        -4.99438551560000    0.50726863820000    0.30347496700000
 H        -4.07026309710000   -1.03110268520000   -0.02854590270000
 H        -2.96924168950000    1.77875478140000    0.48928947910000
 H        -0.71584101740000    2.15907922160000    0.54521131010000
 H         3.03061269000000    3.04636364500000   -0.46269639370000
 H         1.50183808690000    2.78092398080000   -1.34255918590000
 H         2.78273273780000    1.53998331000000   -1.38488896320000
 H         2.66687391460000   -1.97863025930000   -0.71769818230000
 H         3.54431226160000    0.33893610530000    1.07573396880000
 H         4.59026416670000   -0.99147128220000    0.36910398050000
 H         0.35996133180000   -2.49965968360000   -0.51108603990000
$end

$rem
 BASIS = 6-31G*
 GUI = 2
 METHOD = B3LYP
 PRINT_ORBITALS false
 MOLDEN_FORMAT false
$end