$molecule
0 1
 C        -3.67476084520000   -0.10509585270000    0.00054584420000
 C        -2.51887467560000    0.55491903400000    0.00028131950000
 C        -1.21515457940000   -0.05218284910000   -0.00040297840000
 C        -0.85573834950000   -1.37774731990000   -0.00015595670000
 C         0.52998908640000   -1.57704080290000    0.00020432650000
 C         1.25599908040000   -0.41058781280000    0.00013846020000
 C         2.68635921580000   -0.28135171590000    0.00107410720000
 C         3.35046173640000    0.87135092350000   -0.00052814720000
 S         0.19538248680000    0.96493120810000   -0.00054896810000
 H        -4.61566250600000    0.41597197120000    0.00145522420000
 H        -3.72139287010000   -1.18015984720000   -0.00010657880000
 H        -2.51803454860000    1.63733682580000    0.00091421500000
 H        -1.56898038700000   -2.18201430770000   -0.00012313590000
 H         0.99228240190000   -2.54891759790000    0.00055047510000
 H         3.22244096950000   -1.22238009990000    0.00345856590000
 H         2.83304496070000    1.81665378660000   -0.00305636820000
 H         4.42534291080000    0.90543537060000    0.00058206370000
$end

$rem
 BASIS = 6-31G*
 GUI = 2
 METHOD = B3LYP
 PRINT_ORBITALS false
 MOLDEN_FORMAT false
$end