$molecule
0 1
 C         3.69477882600000   -1.27209714130000   -0.15461248370000
 C         2.44994966900000   -1.67941172270000    0.06442464660000
 C         1.23375999970000   -0.87359587580000    0.04646355460000
 C         0.00198792700000   -1.52445531810000    0.09211350630000
 C        -1.23138876460000   -0.87547044950000    0.06868522720000
 C        -2.44584770110000   -1.68311084050000    0.10858835500000
 C        -3.69495423800000   -1.27776941530000   -0.08866151770000
 C        -1.20713980740000    0.52073543870000    0.01576050750000
 F        -2.33448983550000    1.24856759130000    0.01169637290000
 C        -0.00107369560000    1.20756114640000   -0.01647181450000
 F        -0.00245787880000    2.54828701430000   -0.05676279770000
 C         1.20642365420000    0.52257069980000   -0.00599346690000
 F         2.33239092700000    1.25214521210000   -0.03039886290000
 H         4.51205139470000   -1.97228681860000   -0.12023425960000
 H         3.95560754220000   -0.25365727770000   -0.37707377420000
 H         2.26886728900000   -2.72763130550000    0.26714304230000
 H         0.00322278440000   -2.60362807360000    0.13784146140000
 H        -2.25963036270000   -2.73095027820000    0.30861438550000
 H        -3.96118899640000   -0.25984260360000   -0.30705179990000
 H        -4.51044688180000   -1.97915010300000   -0.03948185240000
$end

$rem
 BASIS = 6-31G*
 GUI = 2
 METHOD = B3LYP
 PRINT_ORBITALS false
 MOLDEN_FORMAT false
$end