$molecule
0 1
 C        -2.06895912170000   -3.15502153200000    0.12213265200000
 C        -2.18457881300000   -1.88746181560000   -0.25537595660000
 C        -1.12087037250000   -0.89405086960000   -0.15315732730000
 C         0.22126526000000   -1.27122180000000   -0.14736078680000
 C         1.25019519770000   -0.34745458210000   -0.05135401040000
 C         2.64116385450000   -0.88961904900000   -0.17181897810000
 O         3.02838650490000   -1.84269126770000    0.44191077660000
 O         3.42505009620000   -0.28387120440000   -1.08349480290000
 C         0.96177166820000    1.01828760760000    0.09515682530000
 C         1.98165401540000    2.04175238890000    0.32200157040000
 C         3.10294709760000    1.85389769380000    1.00670367060000
 C        -0.37794331140000    1.39996653720000    0.08165121020000
 C        -1.40851895610000    0.47845855030000   -0.04932857090000
 C        -2.81134437640000    1.00180902380000   -0.08897004030000
 O        -3.62853725210000    0.68707414540000   -0.90625775060000
 O        -3.10456348960000    1.90640936880000    0.86418053410000
 H        -2.89269541280000   -3.84063475800000    0.02577138180000
 H        -1.16725054060000   -3.55370795370000    0.55659222220000
 H        -3.12210246080000   -1.52596258310000   -0.65134760280000
 H         0.48466722260000   -2.31168668710000   -0.25611042110000
 H         2.99994494210000    0.48400505710000   -1.48778916740000
 H         1.73439319630000    3.02827088500000   -0.05104991960000
 H         3.35997586420000    0.90120265930000    1.43960434040000
 H         3.80099468990000    2.65615321960000    1.17153479080000
 H        -0.61077691200000    2.45456215140000    0.16054088960000
 H        -2.37361934660000    2.04969192160000    1.48038078670000
$end

$rem
 BASIS = 6-31G*
 GUI = 2
 METHOD = B3LYP
 PRINT_ORBITALS false
 MOLDEN_FORMAT false
$end