$molecule
0 1
 C           -1.33269414490000       -3.82139742260000       -0.33708752620000
 C           -1.30799537430000       -2.58025359910000        0.13092889180000
 C           -0.16347801660000       -1.67594990440000        0.02755814080000
 C            1.13563845900000       -2.18046692990000        0.09779775800000
 C            2.23467329840000       -1.35477218670000        0.05721258860000
 C            2.06951081940000        0.02776459450000       -0.05886177610000
 O            3.20997953340000        0.76462406090000       -0.08732570550000
 C            3.10782989590000        2.16654476260000       -0.17214183900000
 C            0.78592264430000        0.54857955570000       -0.13984046140000
 C           -0.33010519510000       -0.28649536480000       -0.09472650740000
 C           -1.67157385280000        0.27256818870000       -0.23427319880000
 C           -2.06196336210000        1.49454488940000        0.09093304820000
 F           -1.33447268910000        2.46348357730000        0.63913566780000
 F           -3.30714144560000        1.93792600070000       -0.08060608560000
 H           -2.19699410130000       -4.45200373920000       -0.21831511080000
 H           -0.50015734940000       -4.24945811640000       -0.86959325800000
 H           -2.17945862790000       -2.18846695210000        0.63918858870000
 H            1.27745174840000       -3.24405712230000        0.21251618580000
 H            3.23581432530000       -1.75029479550000        0.11954889120000
 H            4.13101210970000        2.53753865330000       -0.14302221170000
 H            2.54757341590000        2.58065404830000        0.67177175100000
 H            2.63745746780000        2.47896946090000       -1.10993998770000
 H            0.63839300380000        1.60833766410000       -0.26020400830000
 H           -2.43840823790000       -0.36555113910000       -0.64631777450000
$end

$rem
 BASIS = 6-31G*
 GUI = 2
 METHOD = B3LYP
 PRINT_ORBITALS false
 MOLDEN_FORMAT false
$end