$molecule
0 1
 C        -4.17870092520000   -1.14298432590000   -0.20766794720000
 C        -3.27819957740000   -0.18813452420000   -0.01219877120000
 C        -1.82746275660000   -0.34260639370000   -0.04828248940000
 C        -1.17767938160000   -1.55854120470000   -0.28652940110000
 C         0.20230718180000   -1.57534129780000   -0.29484059410000
 C         0.91588421350000   -0.40196252040000   -0.06302822360000
 C         2.40748959560000   -0.44040500050000   -0.05189249340000
 N         2.94058585110000   -1.11977812510000   -1.10019183830000
 O         3.10127823310000    0.05638027560000    0.80873771180000
 C         0.18122690160000    0.77661439350000    0.17764021600000
 C         0.84128607720000    2.05502129690000    0.42121809830000
 C         0.17100400970000    3.18916377780000    0.58699666610000
 N        -1.14594883070000    0.77537723820000    0.16885237600000
 H        -5.23360147640000   -0.93342477170000   -0.16137336140000
 H        -3.91229065920000   -2.16480301500000   -0.41948449660000
 H        -3.59284012930000    0.82491774080000    0.19789888720000
 H        -1.73637221280000   -2.46481919790000   -0.45385842240000
 H         0.73193816750000   -2.50506621630000   -0.45537365980000
 H         2.37974612030000   -1.46125441220000   -1.85957124750000
 H         3.94295114570000   -1.17808254560000   -1.17316350330000
 H         1.91876196370000    2.02931417170000    0.47836685470000
 H        -0.90449980600000    3.20234818390000    0.54110172760000
 H         0.67327099200000    4.12294054840000    0.77173166350000
$end

$rem
 BASIS = 6-31G*
 GUI = 2
 METHOD = B3LYP
 PRINT_ORBITALS false
 MOLDEN_FORMAT false
$end