$molecule
0 1
 C            1.52083865530000        3.07265430090000       -0.04407526100000
 C            1.16690859680000        1.89974219550000       -0.55037670000000
 C           -0.08259534790000        1.20371665580000       -0.25486162040000
 C           -1.25319355740000        1.92103162340000       -0.01563420290000
 C           -2.46382715580000        1.28808465780000        0.18222344220000
 C           -2.56549604720000       -0.09662109360000        0.13296163150000
 C           -3.86139296240000       -0.81961029280000        0.31951231100000
 C           -1.39509254150000       -0.80176649450000       -0.10595236700000
 F           -1.46004644320000       -2.15394707580000       -0.14977526030000
 C           -0.15185087350000       -0.19930485170000       -0.28269118370000
 C            1.00494605760000       -1.07090003110000       -0.48452205200000
 C            2.19026207840000       -0.92857377950000        0.08325304790000
 F            2.56326596960000        0.01220368170000        0.94139111180000
 F            3.20794944640000       -1.76190255220000       -0.11880000790000
 H            2.44960030960000        3.54398958530000       -0.31377647790000
 H            0.91359242200000        3.59172029620000        0.67797694470000
 H            1.82916289720000        1.39333702370000       -1.24148027640000
 H           -1.21055890050000        2.99893608260000       -0.01020001040000
 H           -3.35222575280000        1.87379841480000        0.36538125480000
 H           -4.65908678470000       -0.12363229290000        0.56269421880000
 H           -3.77219210900000       -1.55419877320000        1.11860423530000
 H           -4.12630772760000       -1.35774714050000       -0.59015537350000
 H            0.86084626630000       -1.95124190890000       -1.09414351110000
$end

$rem
 BASIS = 6-31G*
 GUI = 2
 METHOD = B3LYP
 PRINT_ORBITALS false
 MOLDEN_FORMAT false
$end