$molecule
0 1
 C           -3.30499502690000        3.37870918050000        0.04996509990000
 C           -2.07402311080000        3.01004893190000       -0.28254001900000
 C           -1.51510173470000        1.66505689370000       -0.20153914910000
 C           -2.28648839090000        0.54149350930000        0.10205842650000
 C           -1.73358190030000       -0.72550034570000        0.15917189150000
 C           -2.55191053070000       -1.94299865750000        0.45508672030000
 C           -0.36830071310000       -0.85446132600000       -0.07675940760000
 F            0.16164261270000       -2.09532338680000       -0.07232558550000
 C            0.44650279450000        0.23711313340000       -0.36391687680000
 C            1.88260262630000        0.11160391930000       -0.60561830660000
 C            2.71136902000000       -0.69190059810000        0.04098862880000
 F            2.42882198080000       -1.49631684070000        1.05097289060000
 F            4.01526241550000       -0.75517255750000       -0.21943052190000
 C           -0.15555838890000        1.48958888480000       -0.44212330990000
 H           -3.62430021430000        4.40243639610000       -0.04148211570000
 H           -4.03972223850000        2.68982560900000        0.42944218910000
 H           -1.38208158360000        3.76081761470000       -0.64366230120000
 H           -3.34443379870000        0.65032009350000        0.28094652030000
 H           -3.58840214200000       -1.67734812210000        0.64183602780000
 H           -2.15327336430000       -2.46015347630000        1.32672411690000
 H           -2.50858807460000       -2.63712132430000       -0.38340616410000
 H            2.31632946560000        0.75274491190000       -1.35789843620000
 H            0.45962880740000        2.34568280140000       -0.67751325020000
$end

$rem
 BASIS = 6-31G*
 GUI = 2
 METHOD = B3LYP
 PRINT_ORBITALS false
 MOLDEN_FORMAT false
$end