$molecule
0 1
 C            2.01513312240000        2.68245562300000        0.36035024630000
 C            0.75651867030000        2.67613251240000        0.77894830090000
 C           -0.25515408980000        1.66920758730000        0.46286776320000
 C           -1.57152160580000        2.09726673760000        0.29329637140000
 C           -2.58150972120000        1.22166948600000       -0.04904580090000
 C           -2.28333164060000       -0.12108712050000       -0.19713104620000
 F           -3.25791841680000       -0.99027947440000       -0.50553978010000
 C           -0.98634386530000       -0.57565712760000       -0.00595926370000
 F           -0.73981929090000       -1.89288076890000       -0.08148178940000
 C            0.04798973310000        0.30439720280000        0.31398019770000
 C            1.39063580960000       -0.21247851240000        0.57678294650000
 C            2.00996757100000       -1.13815918280000       -0.13833536870000
 F            1.59190758160000       -1.68871416490000       -1.26453251320000
 F            3.22060264580000       -1.59934592790000        0.15841730180000
 H            2.68509568250000        3.48349276260000        0.62168409990000
 H            2.41534666640000        1.91588543190000       -0.28019930010000
 H            0.38981954570000        3.50718903240000        1.36838858060000
 H           -1.79951326810000        3.14487899120000        0.41732080920000
 H           -3.59630488460000        1.55561500280000       -0.19225218730000
 H            1.91771196200000        0.18766518680000        1.42995963430000
$end

$rem
 BASIS = 6-31G*
 GUI = 2
 METHOD = B3LYP
 PRINT_ORBITALS false
 MOLDEN_FORMAT false
$end