$molecule
0 1
 C        -4.24348884890000    1.25471697170000   -0.00431526800000
 N        -3.19009278880000    0.28129056360000   -0.00072708940000
 C        -3.34746009180000   -1.07744548130000    0.00300273580000
 C        -2.13667165330000   -1.69884851750000    0.00528260770000
 C        -1.85495117580000    0.55745810800000   -0.00092656100000
 C        -1.15013687690000   -0.67387005120000    0.00269585740000
 C         0.24071704600000   -0.67999404000000    0.00275833960000
 C         0.91913063760000    0.53129706050000   -0.00067024690000
 C         2.36979957340000    0.62905516490000   -0.00151586630000
 C         3.26726233920000   -0.34505962720000    0.00014266100000
 F         3.05934205930000   -1.65870202460000    0.00334648980000
 F         4.58456165100000   -0.12122614370000   -0.00119226690000
 C         0.19416099840000    1.74182428070000   -0.00378081930000
 C        -1.17956909410000    1.77358652150000   -0.00397551500000
 H        -5.20567692630000    0.74577663860000   -0.00618504130000
 H        -4.17841103440000    1.88920008420000   -0.89210935920000
 H        -4.18291514620000    1.89120747990000    0.88239162670000
 H        -4.33187403930000   -1.50670974710000    0.00375844610000
 H        -1.95784489250000   -2.75509763850000    0.00831771340000
 H         0.76799107500000   -1.61941565650000    0.00544717690000
 H         2.78562011770000    1.62664389480000   -0.00403633880000
 H         0.74312933790000    2.67198441570000   -0.00614536040000
 H        -1.71221667900000    2.71277541450000   -0.00642392330000
$end

$rem
 BASIS = 6-31G*
 GUI = 2
 METHOD = B3LYP
 PRINT_ORBITALS false
 MOLDEN_FORMAT false
$end