$molecule
0 1
 C        -6.45318513350000    0.56264803470000    0.07746542280000
 C        -5.21145069720000    1.03505904380000    0.16337972080000
 C        -4.01422695060000    0.25109336590000    0.02738567000000
 C        -3.85835737190000   -1.09387840350000   -0.21300129030000
 C        -2.52314466330000   -1.49988468190000   -0.28035800290000
 C        -1.62763776070000   -0.46946689630000   -0.09199068250000
 C        -0.20363834940000   -0.53412754840000   -0.09721909140000
 C         0.59311824170000   -1.64250764700000   -0.28773760110000
 C         1.96106231360000   -1.36323684380000   -0.23249462280000
 C         2.23606336960000   -0.03631986200000    0.00110608710000
 C         3.49188941160000    0.64378147270000    0.12605685660000
 C         4.69671187260000    0.08977475280000    0.03761869740000
 F         4.96965301460000   -1.19207550910000   -0.18198642230000
 F         5.83259272210000    0.77027048440000    0.16185248240000
 S         0.76774323270000    0.88278289050000    0.15524877910000
 S        -2.46651184860000    1.02830782410000    0.17263712720000
 H        -7.30503593720000    1.20935382610000    0.18993591810000
 H        -6.66027112080000   -0.47711499680000   -0.10652630440000
 H        -5.04861744990000    2.08862259500000    0.35023198960000
 H        -4.68561907380000   -1.76857865250000   -0.33754437260000
 H        -2.21923889630000   -2.51485416120000   -0.46128718330000
 H         0.19648946930000   -2.62584169260000   -0.46152814280000
 H         2.72329909170000   -2.10966011970000   -0.35967362780000
 H         3.46404579130000    1.70701510880000    0.30974146340000
$end

$rem
 BASIS = 6-31G*
 GUI = 2
 METHOD = B3LYP
 PRINT_ORBITALS false
 MOLDEN_FORMAT false
$end