$molecule
0 1
 C         3.85230400910000    2.51297126290000   -0.01811473370000
 C         3.52795478160000    1.22620738450000    0.06503218530000
 C         2.18388093790000    0.71315300610000    0.00369786280000
 C         0.96276827820000    1.32108851420000   -0.14310862790000
 C        -0.00701148630000    0.28877993950000   -0.13232895380000
 C        -1.44437275140000    0.54160051790000   -0.26461904680000
 O        -1.91942026790000    1.64657273320000   -0.37234948860000
 O        -2.17895215370000   -0.58396550170000   -0.26593008230000
 C        -3.59316504200000   -0.42397746870000   -0.37468898810000
 C        -4.22606244670000   -0.12018255640000    0.97585866240000
 C         0.69780241590000   -0.90024421450000    0.02395150710000
 C         0.24807083270000   -2.26392111710000    0.10727227960000
 C         1.06905802720000   -3.30228810120000    0.25380179560000
 O         2.01195093370000   -0.62852641340000    0.10421283350000
 H         4.87648818660000    2.83649870900000    0.03418219600000
 H         3.10709818720000    3.27913787530000   -0.14049966620000
 H         4.29029847690000    0.46876471110000    0.18804748680000
 H         0.75501600440000    2.36505742760000   -0.24792235120000
 H        -3.95511695440000   -1.37315730820000   -0.77599405730000
 H        -3.80499014770000    0.38542368440000   -1.08113300860000
 H        -3.97565106060000   -0.89818006300000    1.69336229360000
 H        -5.30574426890000   -0.06811252070000    0.86871304660000
 H        -3.86226981400000    0.83443399710000    1.34775393330000
 H        -0.82067551220000   -2.39275479630000    0.04073652870000
 H         2.13583583360000   -3.17019567000000    0.31819495430000
 H         0.69680579820000   -4.30958268730000    0.31258598340000
$end

$rem
 BASIS = 6-31G*
 GUI = 2
 METHOD = B3LYP
 PRINT_ORBITALS false
 MOLDEN_FORMAT false
$end