$molecule
0 1
 C         4.08854831880000   -0.84500218200000    0.09462808500000
 C         3.26132169460000    0.19172747610000    0.02953041900000
 C         1.80655944300000    0.13766931380000    0.02052802860000
 C         1.06872844620000   -1.04367293400000    0.08085658280000
 C        -0.31871604360000   -1.07079875560000    0.07389195800000
 C        -1.05146697650000   -2.33049841750000    0.14603506120000
 C        -0.60067616120000   -3.51034304040000   -0.25915584130000
 C        -1.02005915310000    0.14960003120000    0.01697655620000
 S        -2.78260897310000    0.09690952110000    0.00107662380000
 C        -3.27673289950000    1.84211903830000    0.05546948200000
 C        -0.31444609430000    1.34144885030000   -0.05107586220000
 C         1.06464165730000    1.31806056570000   -0.04798250480000
 F         1.70396518550000    2.50845929990000   -0.11025897470000
 H         5.15539014880000   -0.70426981610000    0.09531846250000
 H         3.74761606360000   -1.86452086910000    0.15024594030000
 H         3.67360557770000    1.19102940190000   -0.02371473370000
 H         1.59508338590000   -1.98082371480000    0.15446507670000
 H        -2.05306126620000   -2.25247275200000    0.54987254710000
 H         0.37053815860000   -3.63611310790000   -0.70747726660000
 H        -1.20141863370000   -4.39882802870000   -0.17197054920000
 H        -4.36092399050000    1.82947663150000    0.11288028720000
 H        -2.96476030990000    2.35077310040000   -0.85208415380000
 H        -2.86719017540000    2.31913673360000    0.94089649440000
 H        -0.80356038260000    2.29956889510000   -0.10749823300000
$end

$rem
 BASIS = 6-31G*
 GUI = 2
 METHOD = B3LYP
 PRINT_ORBITALS false
 MOLDEN_FORMAT false
$end