$molecule
0 1
 C           -2.21467966200000       -2.66507145580000        0.52619402180000
 C           -1.03795858190000       -2.77985171360000       -0.07646630930000
 C            0.01626506470000       -1.76968054600000       -0.10525529460000
 C            1.34109384500000       -2.20219981780000       -0.00866335210000
 C            2.39009439690000       -1.31585251060000        0.04291756900000
 C            2.14743674130000        0.05926098980000       -0.02276096430000
 O            3.24162311890000        0.86096781420000        0.03809084590000
 C            3.06108197710000        2.25674563250000       -0.01072383350000
 C            0.84188905910000        0.50681327480000       -0.16050321560000
 C           -0.22628670000000       -0.39031350450000       -0.20019800750000
 C           -1.57983607240000        0.10333387490000       -0.42868196950000
 C           -2.06417337140000        1.27947244260000       -0.06573080700000
 F           -1.44489699420000        2.23241284810000        0.62759603370000
 F           -3.30687185080000        1.68178292240000       -0.33440454550000
 H           -2.92792726670000       -3.47179654210000        0.52211295260000
 H           -2.49871426040000       -1.78069362750000        1.07100202660000
 H           -0.77639960920000       -3.71810521420000       -0.55128942580000
 H            1.53942868040000       -3.26261379570000        0.04808029130000
 H            3.40946321830000       -1.65598845370000        0.13032701790000
 H            4.05686326860000        2.68513694810000        0.09069443190000
 H            2.42896993750000        2.60927794080000        0.81000857780000
 H            2.62811171540000        2.57226029070000       -0.96536886960000
 H            0.63716454480000        1.55936921700000       -0.26080847980000
 H           -2.26277454970000       -0.55144601930000       -0.94984861470000
$end

$rem
 BASIS = 6-31G*
 GUI = 2
 METHOD = B3LYP
 PRINT_ORBITALS false
 MOLDEN_FORMAT false
$end