$molecule
0 1
 C         3.97902219650000    0.17742084470000    0.02915071750000
 C         2.89117423770000    0.93510752080000   -0.03418472830000
 C         1.50499153640000    0.47970525400000   -0.01669147120000
 C         1.14893939980000   -0.86821322080000    0.00272775990000
 C        -0.18376013440000   -1.26310683000000    0.01755275610000
 C        -0.48818615140000   -2.69022543290000    0.03202737070000
 C        -1.68650198420000   -3.25549252790000   -0.04936967580000
 C        -1.18516113790000   -0.28876079660000    0.01962342710000
 C        -0.84875239190000    1.05590369260000    0.00067709990000
 O        -1.74692354030000    2.08339288240000    0.00059940400000
 C        -3.11882756240000    1.77765839290000    0.01623510180000
 C         0.49268097500000    1.43254869310000   -0.01997981290000
 H         4.96420368880000    0.61123898370000    0.01086269190000
 H         3.94096109550000   -0.89571440980000    0.10350093090000
 H         3.00603226260000    2.01008512100000   -0.10170425670000
 H         1.91671280190000   -1.62614942380000   -0.00024065460000
 H         0.38265485440000   -3.32988694930000    0.11066357280000
 H        -2.59809734860000   -2.69002217650000   -0.13969165150000
 H        -1.80138816610000   -4.32579374410000   -0.03274033360000
 H        -2.21717514570000   -0.59582370270000    0.04077304750000
 H        -3.63465365880000    2.73670462630000    0.00882017130000
 H        -3.39864487050000    1.22511594770000    0.91945607940000
 H        -3.41387029710000    1.20307784740000   -0.86818123930000
 H         0.72481839340000    2.48637398770000   -0.03444136220000
$end

$rem
 BASIS = 6-31G*
 GUI = 2
 METHOD = B3LYP
 PRINT_ORBITALS false
 MOLDEN_FORMAT false
$end