$molecule
0 1
 C         2.07536024650000    1.86113883170000   -0.28360175670000
 C         2.00344398420000    0.63857649500000    0.22790195550000
 C         0.87172942030000   -0.25921763230000    0.12680258720000
 C         0.96604737470000   -1.67904503230000    0.09219546990000
 C        -0.30308022160000   -2.14362558790000   -0.03928610990000
 O        -1.18223649950000   -1.13170747980000   -0.07373892550000
 C        -0.48177798840000    0.02387897440000    0.02897906910000
 C        -1.19250305570000    1.27366221420000    0.10122724060000
 C        -2.49658377270000    1.40421972650000   -0.12871563600000
 H         2.96041077160000    2.46391319490000   -0.17150536870000
 H         1.26884963550000    2.29476307590000   -0.84928459430000
 H         2.86199566650000    0.22068933670000    0.73973535310000
 H         1.86513455430000   -2.25886447590000    0.14302611050000
 H        -0.69797467830000   -3.13796596140000   -0.11268172690000
 H        -0.58886561460000    2.12477052160000    0.38106125480000
 H        -3.10212732990000    0.56049440660000   -0.41227544690000
 H        -2.99229272720000    2.35494949460000   -0.04314334760000
$end

$rem
 BASIS = 6-31G*
 GUI = 2
 METHOD = B3LYP
 PRINT_ORBITALS false
 MOLDEN_FORMAT false
$end