$molecule
0 1
 C        -2.50384911830000   -1.75425129910000   -0.76498070420000
 C        -2.50082092790000   -0.64432408940000   -0.03854662390000
 C        -1.37520744650000    0.28243789830000    0.07253038730000
 C        -1.63365731370000    1.65374636610000    0.15432471640000
 N        -0.69441009980000    2.57594432880000    0.20867083150000
 C         0.56608164520000    2.19486981440000    0.16595699280000
 C         0.97750554820000    0.86113260070000    0.07489361940000
 C         2.39122880310000    0.50029465330000    0.05805590320000
 C         3.35361590700000    1.27683642440000   -0.42224333090000
 C        -0.03054144430000   -0.11467136030000    0.05531881990000
 C         0.35061404970000   -1.56429995370000    0.04256539620000
 O         1.05346638570000   -2.06951817670000   -0.78484750480000
 O        -0.12106801430000   -2.28072415460000    1.08382224680000
 H        -3.38015272050000   -2.37529862660000   -0.83492997550000
 H        -1.64583080560000   -2.07699602550000   -1.33066597300000
 H        -3.40276189660000   -0.32611862730000    0.47000098350000
 H        -2.65277303670000    2.01706999390000    0.17186859030000
 H         1.29516899690000    2.98981469600000    0.23474072100000
 H         2.63627053940000   -0.48067157840000    0.44106679700000
 H         3.15379197830000    2.24071481790000   -0.85927217430000
 H         4.38163057300000    0.95936160910000   -0.41608143560000
 H        -0.70938535350000   -1.76727740110000    1.65290341900000
$end

$rem
 BASIS = 6-31G*
 GUI = 2
 METHOD = B3LYP
 PRINT_ORBITALS false
 MOLDEN_FORMAT false
$end