$molecule
0 1
 C         4.76986089280000    0.27071640030000    0.16172465130000
 C         3.52990701550000    0.74540751670000    0.19795291530000
 C         2.30120896380000   -0.03185964920000    0.10767238950000
 C         2.27345651560000   -1.42942929430000    0.07187615590000
 C         1.08337936950000   -2.11550165170000   -0.03526854570000
 C        -0.14127095090000   -1.44328689130000   -0.11564096420000
 C        -1.37479850580000   -2.18843020470000   -0.32925972040000
 C        -2.36455854290000   -1.77415507530000   -1.10811635810000
 C        -0.10586606520000   -0.05636595960000   -0.02248883070000
 S        -1.62146220250000    0.87612850790000    0.04575608740000
 O        -1.95285175450000    1.46101605200000   -1.20710699110000
 O        -2.62246336520000    0.28421946790000    0.85875121630000
 F        -1.04933793130000    2.13637791530000    0.95255452890000
 C         1.07655505540000    0.64066503970000    0.07271766130000
 H         5.61903846650000    0.92776817190000    0.23316049010000
 H         4.99369890870000   -0.77685500470000    0.05647602550000
 H         3.37725109910000    1.81237708610000    0.29602526330000
 H         3.19639640440000   -1.98465526950000    0.12800660780000
 H         1.08718142290000   -3.19458584110000   -0.07887645940000
 H        -1.41920481170000   -3.16095916520000    0.14356436800000
 H        -2.32761522650000   -0.83721518700000   -1.63656011130000
 H        -3.24830983530000   -2.37168854290000   -1.25052673520000
 H         1.05027188450000    1.71689674450000    0.13084201660000
$end

$rem
 BASIS = 6-31G*
 GUI = 2
 METHOD = B3LYP
 PRINT_ORBITALS false
 MOLDEN_FORMAT false
$end