$molecule
0 1
 C        -0.64259023040000   -2.36714480190000    0.64318592240000
 C        -1.11738378350000   -1.53853387900000   -0.27450636460000
 C        -1.15769844610000   -0.07941677120000   -0.14662668500000
 N        -2.28761742000000    0.47608603990000   -0.57153367230000
 C        -2.49011189150000    1.76650824420000   -0.40375737840000
 C        -1.57856084730000    2.59845367350000    0.23025547040000
 C        -0.37472229230000    2.04793997630000    0.63029890840000
 C        -0.12437558550000    0.69339670910000    0.41714658880000
 C         1.20085386940000    0.17249093130000    0.75487728230000
 C         1.92952579970000   -0.61301068410000   -0.01872417840000
 F         1.58857734080000   -1.09621787960000   -1.20549752100000
 F         3.15243097020000   -1.03456559560000    0.29482542780000
 H        -0.69009362420000   -3.43455687780000    0.51410813760000
 H        -0.20037456220000   -2.01659849280000    1.56181342640000
 H        -1.60750927810000   -1.91769317490000   -1.15981132790000
 H        -3.42945784940000    2.14461040090000   -0.78502203110000
 H        -1.79329470820000    3.64363740360000    0.38660762130000
 H         0.38648650190000    2.66474103500000    1.08706686990000
 H         1.65814986860000    0.51859226480000    1.67003137920000
$end

$rem
 BASIS = 6-31G*
 GUI = 2
 METHOD = B3LYP
 PRINT_ORBITALS false
 MOLDEN_FORMAT false
$end