$molecule
0 1
 C        -3.19452470200000    1.06407672060000   -0.00154993260000
 C        -2.64104023760000   -0.14498062030000    0.00161567890000
 C        -1.22819281520000   -0.40244579440000    0.00084124620000
 C        -0.60555805230000   -1.62906009140000    0.00058030520000
 N         0.73364435210000   -1.61301005080000   -0.00056160690000
 C         1.21742812630000   -0.41230107610000   -0.00084043890000
 C         2.62103317650000   -0.11347945440000   -0.00155649320000
 C         3.13351235270000    1.11359083870000    0.00189197170000
 S        -0.01916411600000    0.84390024320000   -0.00018459830000
 H        -4.26182849470000    1.19669510810000   -0.00089644000000
 H        -2.59248590090000    1.95789589340000   -0.00514713150000
 H        -3.25822537240000   -1.03454304230000    0.00484175470000
 H        -1.11685944500000   -2.57541738770000    0.00106190430000
 H         3.25474641330000   -0.98958547740000   -0.00484268340000
 H         2.50317205710000    1.98808333860000    0.00560861710000
 H         4.19580041320000    1.28093189430000    0.00134404290000
$end

$rem
 BASIS = 6-31G*
 GUI = 2
 METHOD = B3LYP
 PRINT_ORBITALS false
 MOLDEN_FORMAT false
$end