$molecule
0 1
 C        -3.58031730770000    1.33533495000000    0.10930512880000
 C        -2.93568384900000    0.18003396100000   -0.00803266680000
 C        -1.49308070930000   -0.01294800500000   -0.01379340450000
 C        -0.57516994540000    1.03998363290000   -0.01283390790000
 C         0.79235934790000    0.82169289940000   -0.01869409360000
 O         1.71605182630000    1.82370589180000   -0.01617897720000
 C         1.27473885870000    3.15865381380000   -0.01855491780000
 C         1.30375134270000   -0.49689647100000   -0.02287095720000
 C         2.74390166730000   -0.70393823490000   -0.03123836910000
 C         3.37449384440000   -1.86267568730000    0.12634838530000
 C         0.39239387670000   -1.54766500610000   -0.03046052890000
 C        -0.96262284950000   -1.30303908830000   -0.02715658800000
 F        -1.80073406630000   -2.36775627400000   -0.03662971790000
 H        -4.65570431410000    1.37362657290000    0.10514708650000
 H        -3.07779110520000    2.28124666510000    0.21866222020000
 H        -3.50884208950000   -0.73309859400000   -0.10107930840000
 H        -0.96035396270000    2.04546431250000   -0.01392735300000
 H         2.17945715790000    3.76492294080000   -0.01893363650000
 H         0.68686322470000    3.39078942180000    0.87532874070000
 H         0.68721451540000    3.38811469690000   -0.91343532540000
 H         3.32016544200000    0.19982092490000   -0.16965459390000
 H         2.85966059220000   -2.79400339780000    0.28862362290000
 H         4.44913314160000   -1.91752263290000    0.10507164820000
 H         0.73317761880000   -2.56970948340000   -0.04841864110000
$end

$rem
 BASIS = 6-31G*
 GUI = 2
 METHOD = B3LYP
 PRINT_ORBITALS false
 MOLDEN_FORMAT false
$end