$molecule
0 1
 C         4.10125128900000    1.40478183480000    0.10798923870000
 C         3.70893123390000    0.13717154930000    0.04904472850000
 C         2.33346148590000   -0.33566879390000   -0.01906299130000
 C         2.07586110250000   -1.71126307790000   -0.05106004900000
 C         0.79150268220000   -2.20917187550000   -0.10676355120000
 C        -0.31698038740000   -1.35528096400000   -0.14085180060000
 C        -1.68914624160000   -1.83826808540000   -0.18920137890000
 C        -2.08604117300000   -3.02798396830000    0.24831233450000
 C        -0.04109946590000    0.00911780150000   -0.12692688600000
 S        -1.34117103610000    1.20966991410000   -0.13777455650000
 O        -0.82654102950000    2.52193356090000    0.03784846330000
 O        -2.34094695060000    0.97483931440000   -1.12064439010000
 F        -2.04178909350000    0.80742053510000    1.30247777680000
 C         1.23172670440000    0.52152147860000   -0.05660724110000
 H         5.14496959620000    1.66242571860000    0.15779572990000
 H         3.40968295430000    2.22908959910000    0.11125884920000
 H         4.45469414510000   -0.64785543170000    0.05239317170000
 H         2.90833752830000   -2.40012219160000   -0.03021425060000
 H         0.63453876450000   -3.27588934800000   -0.14036086240000
 H        -2.40695874490000   -1.14131383360000   -0.59488572500000
 H        -1.41125629510000   -3.73690297930000    0.69917735320000
 H        -3.11818568850000   -3.32574756620000    0.19089644370000
 H         1.33939712610000    1.59276112850000   -0.02854786420000
$end

$rem
 BASIS = 6-31G*
 GUI = 2
 METHOD = B3LYP
 PRINT_ORBITALS false
 MOLDEN_FORMAT false
$end