$molecule
0 1
 C         3.20843604870000   -0.44221868390000   -0.05635355370000
 C         2.11913467900000    0.28239121000000    0.16804033670000
 C         0.78314264140000   -0.25171113620000    0.04888194270000
 N         0.53169945080000   -1.57800256540000   -0.05376731730000
 N        -0.72764143780000   -1.77683892420000   -0.08472718450000
 N        -1.35631026750000   -0.60992535840000    0.00558131440000
 C        -2.78598982610000   -0.53853856500000   -0.01266170710000
 C        -0.45293817920000    0.40661952840000    0.08247458400000
 C        -0.84023158110000    1.79062830630000    0.17868434540000
 C        -0.10712988380000    2.81480285450000   -0.24394468450000
 H         4.19702755890000   -0.03177056500000    0.05595270590000
 H         3.12723700770000   -1.47154853350000   -0.35966788690000
 H         2.18489046520000    1.31747749730000    0.47548509330000
 H        -3.15911768410000   -1.55344556750000   -0.13542862130000
 H        -3.12955669430000    0.08114038490000   -0.84295566240000
 H        -3.16420308270000   -0.12517682540000    0.92487397930000
 H        -1.81209003960000    1.97039406560000    0.62314104880000
 H         0.84258203930000    2.67571932360000   -0.73015813660000
 H        -0.44833698480000    3.82927881010000   -0.13188579370000
$end

$rem
 BASIS = 6-31G*
 GUI = 2
 METHOD = B3LYP
 PRINT_ORBITALS false
 MOLDEN_FORMAT false
$end