$molecule
0 1
 C         3.44741164180000   -1.48909525320000    0.05100838320000
 C         2.91746817320000   -0.27780560130000   -0.06295300320000
 C         1.49984479610000    0.05151493330000   -0.02554929470000
 C         0.46998082170000   -0.88997551160000    0.13211946580000
 C        -0.84292318310000   -0.46008862200000    0.13627242050000
 C        -1.93176698420000   -1.42528593900000    0.24471558670000
 C        -3.11948093070000   -1.32737516600000   -0.33973248480000
 C        -1.02613099440000    0.94745213850000    0.04428569190000
 N        -2.25399450970000    1.53786300300000    0.07464866080000
 N         0.00419165700000    1.77662220560000   -0.10715339290000
 N         1.22076418520000    1.34431366270000   -0.16162091010000
 H         4.51261922250000   -1.63837940370000    0.01152331240000
 H         2.85409295950000   -2.37790353760000    0.18679529100000
 H         3.55028807560000    0.58844042820000   -0.19845221600000
 H         0.69130131330000   -1.94312552730000    0.22123097730000
 H        -1.69207850630000   -2.30856162050000    0.82556600190000
 H        -3.37897951880000   -0.50417945510000   -0.98361743630000
 H        -3.86029837150000   -2.10140884000000   -0.22989980760000
 H        -3.00176140430000    1.04561842080000    0.53550276290000
 H        -2.22996362730000    2.53951675340000    0.18207699210000
$end

$rem
 BASIS = 6-31G*
 GUI = 2
 METHOD = B3LYP
 PRINT_ORBITALS false
 MOLDEN_FORMAT false
$end