$molecule
0 1
 C        -3.92875547820000   -2.33782910130000    0.01172492460000
 C        -4.09028722770000   -1.02199009660000    0.07515208530000
 C        -3.04067599600000   -0.00945611070000    0.02806699390000
 C        -3.40520191760000    1.33756214120000   -0.02464258100000
 C        -2.44066573740000    2.32731752720000   -0.07386349180000
 C        -1.09891151740000    2.00082857060000   -0.06981107200000
 C        -0.69859246690000    0.66202759710000   -0.01401552640000
 C         0.69026185530000    0.24245516610000   -0.00375620640000
 C         1.76362907620000    1.04299090490000   -0.10586376350000
 C         3.14364662420000    0.62321721680000   -0.09886241420000
 C         3.62665010130000   -0.60911299370000    0.01543952310000
 F         2.94514234150000   -1.74149388230000    0.15030794490000
 F         4.92990352250000   -0.88653126780000    0.00952960060000
 C        -1.68509514790000   -0.32358487230000    0.03681447250000
 H        -4.77143519080000   -3.00656164200000    0.05119401410000
 H        -2.96385196350000   -2.80487956060000   -0.08573630050000
 H        -5.09343941690000   -0.62161977600000    0.16106666660000
 H        -4.45199075410000    1.60613983660000   -0.02884162620000
 H        -2.73926011500000    3.36491608650000   -0.11421732230000
 H        -0.36322769880000    2.78884170150000   -0.10394907630000
 H         0.83393331390000   -0.82466370070000    0.09058624820000
 H         1.63396580110000    2.11035481620000   -0.20813769470000
 H         3.89222223230000    1.39555458230000   -0.19794829380000
 H        -1.37774305720000   -1.35714184000000    0.08793976360000
$end

$rem
 BASIS = 6-31G*
 GUI = 2
 METHOD = B3LYP
 PRINT_ORBITALS false
 MOLDEN_FORMAT false
$end