$molecule
0 1
 C        -0.25907677470000   -0.02193176290000   -2.50896421110000
 C        -0.66507262360000   -1.05839880880000   -1.79012151990000
 C        -1.54541405680000   -0.99725894040000   -0.62111369450000
 C        -2.49871959550000   -2.00319708510000   -0.46669079040000
 C        -3.40677284190000   -1.98093066730000    0.57383694920000
 C        -3.37216896300000   -0.94616369610000    1.49384843180000
 C        -2.41831181860000    0.04665475370000    1.37002857830000
 C        -1.49364881250000    0.03206996900000    0.33028487940000
 C        -0.47194838900000    1.09689282920000    0.29560845750000
 C        -0.88138930650000    2.42375211100000    0.23252146150000
 C         0.04232647630000    3.45216884560000    0.19745023820000
 C         1.39580224630000    3.16104152700000    0.23665868570000
 C         1.81899509140000    1.84801528480000    0.31878438600000
 C         0.89963203880000    0.80145093000000    0.35149603580000
 C         1.32202749580000   -0.58802839200000    0.48443621740000
 C         2.47486914190000   -1.10493950490000    0.09364564860000
 F         3.47657233810000   -0.48406393620000   -0.52032056350000
 F         2.79696573430000   -2.38873005600000    0.25289268240000
 H         0.36135389960000   -0.15157499870000   -3.37928830800000
 H        -0.53423030360000    0.99027775630000   -2.26672372830000
 H        -0.39605507750000   -2.06103671940000   -2.10120114800000
 H        -2.53202250870000   -2.80466720910000   -1.19106638260000
 H        -4.13993306160000   -2.76817538440000    0.66789322280000
 H        -4.07869227570000   -0.91815172620000    2.30991945130000
 H        -2.36827525290000    0.84223586340000    2.09991773380000
 H        -1.93897558270000    2.64261647100000    0.19137631130000
 H        -0.29267223460000    4.47714330700000    0.14039081750000
 H         2.12322511200000    3.95831161420000    0.21129714760000
 H         2.87439980380000    1.63417934490000    0.37593267640000
 H         0.62215544700000   -1.27885303380000    0.93111070320000
$end

$rem
 BASIS = 6-31G*
 GUI = 2
 METHOD = B3LYP
 PRINT_ORBITALS false
 MOLDEN_FORMAT false
$end