$molecule
0 1
 C           -4.76918214030000        0.07403351360000        0.16725184010000
 C           -3.74397310560000       -0.75044285170000       -0.01484189390000
 C           -2.33261241870000       -0.39410952580000       -0.05910028810000
 C           -1.38183316380000       -1.40513460060000       -0.20706863100000
 C           -0.03686083990000       -1.11092420360000       -0.25013171770000
 C            0.41639581320000        0.20543657420000       -0.14915211530000
 C            1.83515433980000        0.52721999320000       -0.21083911800000
 C            2.85552326910000       -0.28086311970000        0.03324796860000
 F            2.82356411710000       -1.55308586850000        0.41401945850000
 F            4.12863062220000        0.10765504100000       -0.05845127930000
 C           -0.52812656530000        1.23717012940000       -0.00652781420000
 C           -0.10509575620000        2.67128552590000        0.11520951110000
 C           -1.87354238220000        0.91960449970000        0.03734068970000
 H           -5.78196807470000       -0.29017442990000        0.18607598820000
 H           -4.64988078020000        1.13474350950000        0.30654101530000
 H           -3.94110595570000       -1.80808908500000       -0.14276606840000
 H           -1.70503906530000       -2.43272300250000       -0.29008726100000
 H            0.67165898670000       -1.91326438040000       -0.37847869910000
 H            2.10997246070000        1.53633438710000       -0.47671511200000
 H            0.38317278700000        3.00962463800000       -0.79867298560000
 H            0.59080303060000        2.80215869330000        0.94236015090000
 H           -0.96910187140000        3.30705095770000        0.29055195900000
 H           -2.58750294080000        1.72144436140000        0.14897060790000
$end

$rem
 BASIS = 6-31G*
 GUI = 2
 METHOD = B3LYP
 PRINT_ORBITALS false
 MOLDEN_FORMAT false
$end