$molecule
0 1
 C        -3.86109821380000   -0.29705509920000    0.13674277690000
 C        -2.90112698160000    0.61375151550000    0.03261187680000
 C        -1.46621788180000    0.36421515000000   -0.02027537130000
 C        -0.89199277320000   -0.90795214120000    0.00419966440000
 C         0.48436344100000   -1.05427212800000   -0.03464748160000
 C         1.10420335240000   -2.41670159730000    0.01691749290000
 C         1.27226389460000    0.10671225700000   -0.10362188920000
 C         2.72829363160000    0.04740131950000   -0.15525500260000
 C         3.53983638480000    0.98121540750000    0.32436893910000
 C         0.59652652870000    1.32912278860000   -0.14369885540000
 N        -0.70929683640000    1.46126437930000   -0.10005383780000
 H        -4.89905530640000   -0.01336399940000    0.16971330230000
 H        -3.66163728390000   -1.35387131620000    0.19435304590000
 H        -3.15026371230000    1.66502100960000   -0.01878248430000
 H        -1.51900347610000   -1.78453300340000    0.05918671430000
 H         0.34285431060000   -3.17837627650000    0.16652617510000
 H         1.82631345990000   -2.47824429630000    0.82964366280000
 H         1.62678070980000   -2.63237988940000   -0.91518501660000
 H         3.14926723740000   -0.83587299940000   -0.61798218610000
 H         3.16991184330000    1.86100158510000    0.82330999730000
 H         4.61005140220000    0.88966108950000    0.25038653060000
 H         1.15150751440000    2.25408017070000   -0.23406831570000
$end

$rem
 BASIS = 6-31G*
 GUI = 2
 METHOD = B3LYP
 PRINT_ORBITALS false
 MOLDEN_FORMAT false
$end