$molecule
0 1
 C        -4.71556754250000   -2.03980237800000    0.10098072080000
 C        -4.57576457860000   -0.72681959940000   -0.03348851460000
 C        -3.32490840900000    0.02443593960000   -0.02701841450000
 C        -3.37676380030000    1.41989515960000   -0.03096471660000
 C        -2.21416400680000    2.16884883220000   -0.02008666140000
 C        -0.98027085150000    1.54916214920000   -0.01063311260000
 C        -0.89221554770000    0.15338304110000   -0.01293447800000
 C         0.37008047850000   -0.55970713580000   -0.00901108810000
 C         1.59939742810000   -0.02140344470000   -0.00121616480000
 C         2.79416650670000   -0.82123127090000    0.00205024800000
 C         4.01997648770000   -0.31003265060000    0.01029030750000
 F         4.32152675730000    0.98495936940000    0.01660157340000
 F         5.13946691030000   -1.02812598490000    0.01333856160000
 C        -2.07483333800000   -0.58689189350000   -0.02089244200000
 H        -5.68738542560000   -2.50255529650000    0.08720035990000
 H        -3.88102212580000   -2.70636453930000    0.23550141570000
 H        -5.46287125370000   -0.11606575870000   -0.15104002480000
 H        -4.33645616250000    1.91664580330000   -0.03867161190000
 H        -2.27170764030000    3.24765119510000   -0.02064157440000
 H        -0.08485200180000    2.15007712810000   -0.00389745880000
 H         0.28580538050000   -1.64006525750000   -0.01301064430000
 H         1.74618573600000    1.04828252100000    0.00302682300000
 H         2.70543996970000   -1.89662702520000   -0.00245047330000
 H        -2.00932307620000   -1.66457889160000   -0.02968155830000
$end

$rem
 BASIS = 6-31G*
 GUI = 2
 METHOD = B3LYP
 PRINT_ORBITALS false
 MOLDEN_FORMAT false
$end