$molecule
0 1
 C         3.92689141950000   -0.95383738290000   -0.27466906160000
 C         3.08276213620000   -0.08159653020000    0.25799748220000
 C         1.62544727760000   -0.14384400760000    0.12303947450000
 C         1.00166976960000   -1.38177693010000    0.14217635370000
 C        -0.38083164350000   -1.43756129740000    0.05744570870000
 N        -1.22973625350000   -2.51893462790000    0.03335910070000
 C        -2.41638448990000   -2.02084725810000   -0.08610892440000
 N        -2.43568380700000   -0.65446060040000   -0.13008843100000
 C        -1.13121569780000   -0.24463375890000   -0.03923965480000
 C        -0.53649256900000    1.01587397250000   -0.07376815570000
 C        -1.32400976580000    2.23578106440000   -0.23699485110000
 C        -2.50722160930000    2.46367480070000    0.32053362720000
 C         0.86509957820000    1.04953302780000    0.00755404870000
 N         1.51061073240000    2.26769804040000   -0.09542893760000
 H         4.98985230930000   -0.88267045790000   -0.11837046440000
 H         3.58676148770000   -1.76440537780000   -0.89631143970000
 H         3.48125699590000    0.72801081470000    0.86133396920000
 H         1.57774300050000   -2.28600955170000    0.24709811010000
 H        -3.31534673850000   -2.60453290040000   -0.13906617500000
 H        -3.23512568550000   -0.06125840780000   -0.27270140010000
 H        -0.88885040980000    2.99098353870000   -0.88137317320000
 H        -2.96255284710000    1.76806091550000    1.00654979410000
 H        -3.05052503970000    3.37591298030000    0.14067746950000
 H         0.99238700620000    3.07533647670000    0.20668936880000
 H         2.48441786850000    2.27941508370000    0.15674789530000
$end

$rem
 BASIS = 6-31G*
 GUI = 2
 METHOD = B3LYP
 PRINT_ORBITALS false
 MOLDEN_FORMAT false
$end