$molecule
0 1
 C        -4.04841828970000    2.05026985280000    0.15620609300000
 C        -3.44296368300000    1.01292088580000   -0.40538775990000
 C        -2.01991300810000    0.70679570280000   -0.25557722100000
 C        -1.10296147750000    1.75777626810000   -0.18460407360000
 C         0.24926885660000    1.52283622730000   -0.03232912260000
 C         0.69024029240000    0.21569932650000    0.04672597980000
 S         2.44355611650000   -0.12133224690000    0.18716498440000
 C         2.97911637350000   -0.22688796080000   -1.54889060050000
 O         3.09651058850000    1.00931462290000    0.78932125540000
 O         2.62698439820000   -1.41386978750000    0.79058548460000
 C        -0.18788872130000   -0.84169247050000   -0.01895250650000
 C        -1.55757760560000   -0.62163832240000   -0.16495226190000
 C        -2.47238957050000   -1.76158559820000   -0.19941757610000
 C        -2.27169715000000   -2.90165529480000    0.44806610280000
 H        -5.09817679360000    2.23753786730000    0.00927961700000
 H        -3.52785150830000    2.73598271300000    0.80338532520000
 H        -4.02141954730000    0.33098399940000   -1.01382953130000
 H        -1.46454027570000    2.77140827410000   -0.26691208870000
 H         0.96553111100000    2.32598037770000    0.03662363610000
 H         2.77205979760000    0.72400307240000   -2.02187672500000
 H         2.43085470150000   -1.03200759190000   -2.02009696660000
 H         4.04199310830000   -0.43331647910000   -1.55562509770000
 H         0.20790050460000   -1.84275669950000    0.04693037010000
 H        -3.37234393210000   -1.64055617590000   -0.78670829710000
 H        -1.41389108820000   -3.06004208140000    1.07934636060000
 H        -2.97527032230000   -3.71405514730000    0.38641394890000
$end

$rem
 BASIS = 6-31G*
 GUI = 2
 METHOD = B3LYP
 PRINT_ORBITALS false
 MOLDEN_FORMAT false
$end