$molecule
0 1
 C         3.82674638810000    1.33815573550000    0.41891182100000
 C         3.29788079570000    0.14298765670000    0.18506347570000
 C         1.88273329820000   -0.16627920310000    0.03175063770000
 C         0.85748455510000    0.77300871890000    0.15828913320000
 C        -0.46427226880000    0.37724053930000   -0.00616349660000
 C        -1.54045364880000    1.41192377340000    0.11884066200000
 O        -2.45516214750000    1.53516027860000   -0.64483268310000
 O        -1.40184228130000    2.24557952510000    1.16744208140000
 C        -0.74744400130000   -0.96919961290000   -0.29613375400000
 C        -2.10827333710000   -1.45651639390000   -0.47140429790000
 C        -2.49064207470000   -2.71209619290000   -0.26905712370000
 C         0.36260879590000   -1.81848354870000   -0.40138357460000
 N         1.60914169950000   -1.44388426550000   -0.24291214950000
 H         4.89097723770000    1.46647460680000    0.51394054640000
 H         3.23713091410000    2.23404737080000    0.51943944830000
 H         3.93361713780000   -0.72562861540000    0.08337938140000
 H         1.09478639080000    1.80930834680000    0.35179679120000
 H        -0.63561416570000    2.02885748950000    1.71609932940000
 H        -2.83254527690000   -0.71346916310000   -0.77217936290000
 H        -1.81329889310000   -3.48017508790000    0.06580528690000
 H        -3.51343460390000   -3.01222028970000   -0.41689310090000
 H         0.22507590600000   -2.86202201800000   -0.65029281560000
$end

$rem
 BASIS = 6-31G*
 GUI = 2
 METHOD = B3LYP
 PRINT_ORBITALS false
 MOLDEN_FORMAT false
$end