$molecule
0 1
 C         4.29489318510000   -0.83323073170000    0.06622634980000
 C         3.29790948290000    0.04304026760000    0.10288883790000
 C         1.87507500300000   -0.25885572450000    0.02213081330000
 C         1.36314438070000   -1.55909313190000   -0.05520335730000
 C         0.00778657460000   -1.78850467800000   -0.13825705330000
 C        -0.92302631940000   -0.74556455430000   -0.13428928080000
 C        -2.34604536210000   -1.03370406970000   -0.27597857090000
 C        -2.94376942600000   -2.08126390590000    0.27642138120000
 C        -0.40519375770000    0.55535604140000   -0.04504322690000
 N        -1.26613260590000    1.70606412470000    0.01485284840000
 O        -2.41331492680000    1.55167169850000    0.38039533000000
 O        -0.78594669540000    2.77794633790000   -0.29458337550000
 C         0.96116731900000    0.78955891910000    0.02452404530000
 H         5.31999268150000   -0.51232538860000    0.13066903640000
 H         4.14029681580000   -1.89403428660000   -0.03148184580000
 H         3.52655013640000    1.09703975190000    0.19599119530000
 H         2.03745570690000   -2.40083726170000   -0.05568089220000
 H        -0.35688901690000   -2.80030408960000   -0.22837722870000
 H        -2.92732080810000   -0.33260919860000   -0.85859970150000
 H        -2.41801776680000   -2.77118930800000    0.91579039690000
 H        -3.99449274520000   -2.26389328080000    0.13668419150000
 H         1.30037584010000    1.81322053150000    0.09235968930000
$end

$rem
 BASIS = 6-31G*
 GUI = 2
 METHOD = B3LYP
 PRINT_ORBITALS false
 MOLDEN_FORMAT false
$end