$molecule
0 1
 C        -3.81396348300000   -0.35475902940000   -0.01864031880000
 C        -2.81856719000000    0.52447551710000    0.00354235160000
 C        -1.39289145300000    0.22954747930000    0.00439336350000
 C        -0.48145767550000    1.28899536930000    0.00671210540000
 C         0.87835636600000    1.06840244870000    0.00694242370000
 C         1.39290382430000   -0.22956210900000    0.00592564450000
 C         2.81859109840000   -0.52446546210000    0.00641695760000
 C         3.81390186420000    0.35476078740000   -0.02163346110000
 C         0.48147870480000   -1.28900070580000    0.00576717420000
 C        -0.87833673410000   -1.06840779080000    0.00436531150000
 H        -4.84206982490000   -0.03541842830000   -0.01787864530000
 H        -3.65317961850000   -1.41892123740000   -0.03963764360000
 H        -3.05692357240000    1.58157601320000    0.02148532490000
 H        -0.85496212970000    2.30394991010000    0.00812147010000
 H         1.54907060940000    1.91381702160000    0.00994445580000
 H         3.05697668260000   -1.58148801350000    0.03006932050000
 H         3.65291365030000    1.41879742910000   -0.04908634000000
 H         4.84207422350000    0.03563408660000   -0.01907663410000
 H         0.85497025400000   -2.30396222160000    0.00620866490000
 H        -1.54905286580000   -1.91382373860000    0.00466664290000
$end

$rem
 BASIS = 6-31G*
 GUI = 2
 METHOD = B3LYP
 PRINT_ORBITALS false
 MOLDEN_FORMAT false
$end