$molecule
0 1
 C        -4.16856857620000    0.86624770550000   -0.78894026910000
 C        -3.34556822430000    1.09448348820000    0.22298809160000
 C        -1.93298156860000    0.69933388240000    0.25637509390000
 C        -1.01013692460000    1.66223883180000    0.66901200540000
 C         0.34925495220000    1.41866214230000    0.63009514910000
 C         0.78956335300000    0.19332746390000    0.16892109080000
 S         2.54846023570000   -0.12167882790000    0.04318754820000
 C         2.95527398100000    0.50610841990000   -1.61585712820000
 O         3.24308618430000    0.68553711410000    1.00908271980000
 O         2.77566556130000   -1.54147547140000    0.05198358770000
 C        -0.09837921630000   -0.78613656580000   -0.21670503890000
 C        -1.47340345910000   -0.56310462890000   -0.15588926700000
 C        -2.35528495240000   -1.69386203120000   -0.46389672730000
 C        -3.40723489050000   -2.04969624460000    0.25729272650000
 H        -5.18258751040000    1.22715220060000   -0.78518519220000
 H        -3.85889284340000    0.31140752580000   -1.65841391190000
 H        -3.67692320480000    1.68815581360000    1.06610374570000
 H        -1.37386246310000    2.62167032710000    1.00721723980000
 H         1.07102119320000    2.14992048880000    0.95723971980000
 H         2.71185348990000    1.56001459470000   -1.64488763280000
 H         2.37610539500000   -0.05476852470000   -2.33749936570000
 H         4.01530995690000    0.35458482400000   -1.77637575410000
 H         0.29241116840000   -1.74268773170000   -0.52936879740000
 H        -2.03679104550000   -2.30938185870000   -1.29600681320000
 H        -3.72557451730000   -1.48293062110000    1.11577020590000
 H        -3.98620733500000   -2.92471439150000    0.01736929990000
$end

$rem
 BASIS = 6-31G*
 GUI = 2
 METHOD = B3LYP
 PRINT_ORBITALS false
 MOLDEN_FORMAT false
$end