$molecule
0 1
 C         1.54848449690000    3.78837137590000   -0.03957263630000
 C         2.11001803180000    2.58787511300000    0.03233289590000
 C         1.41890026930000    1.30326426630000    0.01717916300000
 C         2.17229756110000    0.13040137470000    0.00794690270000
 C         1.58777184710000   -1.13412398800000   -0.00870253440000
 C         2.44971260590000   -2.31104056290000   -0.01767468710000
 C         2.05824945720000   -3.57915194020000    0.00617258670000
 C         0.19510206080000   -1.22012242020000   -0.01572160000000
 C        -0.56162469820000   -0.06103026830000   -0.00481780160000
 C        -2.06226120140000   -0.12712842150000   -0.00105842680000
 F        -2.54615275130000   -1.37170929070000   -0.11288947700000
 F        -2.58935837590000    0.38177965340000    1.13047931070000
 F        -2.60608861520000    0.58207076430000   -1.00857386070000
 C         0.02942038800000    1.19342692310000    0.01317466470000
 H         2.14507129700000    4.68404701750000   -0.02355287440000
 H         0.48529606910000    3.93400439640000   -0.12087187920000
 H         3.18815380780000    2.51536239980000    0.10396489890000
 H         3.25117625650000    0.20513050270000    0.01265444270000
 H         3.50941537940000   -2.08908566780000   -0.04288009250000
 H         1.02337534220000   -3.87316855760000    0.03596591730000
 H         2.77427049910000   -4.38268835380000   -0.00202335440000
 H        -0.29782075540000   -2.17819280030000   -0.03130537990000
 H        -0.59649723220000    2.07107824630000    0.02610643220000
$end

$rem
 BASIS = 6-31G*
 GUI = 2
 METHOD = B3LYP
 PRINT_ORBITALS false
 MOLDEN_FORMAT false
$end