$molecule
0 1
 C        -3.94387186570000   -0.23960994970000   -0.00078300070000
 C        -2.86151406500000   -1.00707197990000    0.00114803910000
 C        -1.49698854030000   -0.49090710480000    0.00086978620000
 C        -0.40438582370000   -1.39272112770000    0.00221462170000
 C         0.89354156550000   -0.92847088170000    0.00184483960000
 C         2.09409913740000   -1.74796117760000    0.00294178950000
 C         2.12966430770000   -3.07548578380000   -0.00403233920000
 C         1.04819115430000    0.47598986440000    0.00060983390000
 N         2.12955339630000    1.23362448660000    0.00031106670000
 C         1.68473215360000    2.50312254940000   -0.00129298280000
 C         0.30882070560000    2.55422699430000   -0.00183957500000
 N        -0.10127435170000    1.26468336830000   -0.00066502000000
 N        -1.34018068310000    0.81428165340000   -0.00061497050000
 H        -4.93578694640000   -0.65704130240000   -0.00061512060000
 H        -3.85549533830000    0.83275031430000   -0.00268193280000
 H        -2.94507427090000   -2.08564917110000    0.00303690330000
 H        -0.60989542490000   -2.45091546880000    0.00387072790000
 H         3.00803817640000   -1.17062795490000    0.00903683040000
 H         1.24011980170000   -3.68305578080000   -0.01147638920000
 H         3.06466681960000   -3.60808698290000   -0.00296352240000
 H         2.37626374220000    3.32271125620000   -0.00179851500000
 H        -0.37828377540000    3.37336828220000   -0.00297631370000
$end

$rem
 BASIS = 6-31G*
 GUI = 2
 METHOD = B3LYP
 PRINT_ORBITALS false
 MOLDEN_FORMAT false
$end