$molecule
0 1
 C           -2.10708814450000       -2.18331597480000       -0.75210481650000
 C           -1.18647620750000       -2.04977585970000        0.19087332650000
 C           -0.04101109280000       -1.13910467960000        0.12345787620000
 C            1.20826002750000       -1.62641899000000        0.49454616560000
 C            2.36262242460000       -0.87754450730000        0.36443609020000
 C            2.28850355650000        0.41069848150000       -0.15506099610000
 O            3.34757788870000        1.24160190760000       -0.35029763310000
 C            4.63304800190000        0.78356248850000       -0.00657641290000
 C            1.04133698340000        0.92453293120000       -0.50291412930000
 C           -0.11914784300000        0.17965582790000       -0.35174836910000
 C           -1.38729014910000        0.85118268400000       -0.65720806900000
 C           -2.45684863450000        0.84285231180000        0.11702251370000
 F           -2.59833145570000        0.20845267850000        1.27406279300000
 F           -3.58163659270000        1.50155716600000       -0.16052599620000
 H           -2.90516988920000       -2.90006661920000       -0.66363409500000
 H           -2.09529476010000       -1.58826519850000       -1.65050125990000
 H           -1.20990676340000       -2.69438813560000        1.06028706590000
 H            1.27940266570000       -2.63390725550000        0.87840479070000
 H            3.30530479500000       -1.30769917660000        0.66295163550000
 H            5.31082567320000        1.60065375160000       -0.24823913040000
 H            4.91310036550000       -0.10167473860000       -0.58658389940000
 H            4.70678868970000        0.55740952960000        1.06198781220000
 H            0.99474296580000        1.93644672680000       -0.87432638140000
 H           -1.42871007230000        1.47069865420000       -1.54039181750000
$end

$rem
 BASIS = 6-31G*
 GUI = 2
 METHOD = B3LYP
 PRINT_ORBITALS false
 MOLDEN_FORMAT false
$end