$molecule
0 1
 C         3.34710375200000    2.60531055350000    0.01065913270000
 C         3.37434031140000    1.27905735410000   -0.03477596410000
 C         2.22674280110000    0.37827741010000   -0.01688432940000
 C         2.45126715330000   -0.99980426740000    0.01028673490000
 C         1.39185657050000   -1.88714597700000    0.03091106760000
 C         0.08797212020000   -1.42818574310000    0.02265354370000
 C        -0.16655277890000   -0.05531670980000   -0.00758387970000
 C        -1.50804938160000    0.50931400780000   -0.02043528370000
 C        -2.67137657650000   -0.12337135730000   -0.00027349250000
 F        -2.89498158470000   -1.43153676500000    0.03630323790000
 F        -3.84331837990000    0.51128637380000   -0.01467156730000
 C         0.90997932030000    0.82928873670000   -0.02731335010000
 H         4.25526583530000    3.18293667600000   -0.00561141100000
 H         2.43332797140000    3.17135862620000    0.06849781950000
 H         4.33342937420000    0.77781357240000   -0.08452228910000
 H         3.46537044030000   -1.37288646690000    0.01709543750000
 H         1.58208007000000   -2.95000709270000    0.05302136030000
 H        -0.72319125130000   -2.13676396700000    0.03825821440000
 H        -1.57662029310000    1.58747929100000   -0.04941716370000
 H         0.70959415930000    1.88930566970000   -0.05472147960000
$end

$rem
 BASIS = 6-31G*
 GUI = 2
 METHOD = B3LYP
 PRINT_ORBITALS false
 MOLDEN_FORMAT false
$end