$molecule
0 1
 C           -4.06143434640000       -2.06412259630000       -0.00715975170000
 C           -2.73549263920000       -1.99511367100000        0.00009760510000
 C           -1.92377988590000       -0.78486953860000        0.00046309360000
 C           -2.46453615560000        0.49948693670000        0.00512758040000
 C           -1.65177834080000        1.61632816060000        0.00461257710000
 C           -0.26795907620000        1.48966650660000       -0.00070887050000
 O            0.59596312420000        2.54104059670000       -0.00199650410000
 C            0.07700745120000        3.84884953960000        0.00488463390000
 C            0.30629580030000        0.19864287560000       -0.00453995250000
 C            1.75657773310000        0.10176297030000       -0.00986258800000
 C            2.51289703580000       -0.98468246460000       -0.00063932090000
 F            2.12938849620000       -2.25836742990000        0.01606924050000
 F            3.84603471140000       -0.94240752570000       -0.00677945990000
 C           -0.53514313990000       -0.90662917770000       -0.00378482570000
 H           -4.57068662020000       -3.01234888170000       -0.00733222560000
 H           -4.69319904050000       -1.19253169610000       -0.01371511760000
 H           -2.16394045030000       -2.91503453760000        0.00566100560000
 H           -3.53406048310000        0.63764502730000        0.00995425210000
 H           -2.11102469600000        2.59228833660000        0.00847738920000
 H            0.94445063480000        4.50723600430000        0.00265418110000
 H           -0.51893625680000        4.04061540930000        0.90262083880000
 H           -0.52809187390000        4.04675170210000       -0.88536055710000
 H            2.28897169490000        1.04062485200000       -0.02170552400000
 H           -0.10656269060000       -1.89582565250000       -0.00750849530000
$end

$rem
 BASIS = 6-31G*
 GUI = 2
 METHOD = B3LYP
 PRINT_ORBITALS false
 MOLDEN_FORMAT false
$end