$molecule
0 1
 C         2.98858531330000    0.60851342460000   -0.07434991760000
 C         2.31234685110000   -0.49413482240000    0.22369277030000
 C         0.88093767540000   -0.65032430940000    0.12350726310000
 N         0.31500613610000   -1.87408670780000    0.02182554180000
 N        -0.95090097190000   -1.75403099550000   -0.07652160140000
 N        -1.27343277640000   -0.46430130760000   -0.05221466090000
 C        -2.64895083240000   -0.07008471790000   -0.09975917320000
 C        -0.15232588420000    0.29585914870000    0.08163698730000
 C        -0.10442761930000    1.72854354360000    0.23368108710000
 C        -0.92899619750000    2.60925319590000   -0.32243636690000
 H         4.05983027810000    0.64980687480000    0.02255094700000
 H         2.50741612220000    1.49839595310000   -0.44383045600000
 H         2.82679536420000   -1.39119918270000    0.53982942040000
 H        -3.24686233880000   -0.93321533040000    0.18914079010000
 H        -2.93312632260000    0.23132753790000   -1.11030563880000
 H        -2.82648294070000    0.75653059890000    0.58855365570000
 H         0.70860255220000    2.07220290200000    0.86122443250000
 H        -1.72111767060000    2.32705854230000   -0.99371885460000
 H        -0.81217328440000    3.66445267620000   -0.14558747790000
$end

$rem
 BASIS = 6-31G*
 GUI = 2
 METHOD = B3LYP
 PRINT_ORBITALS false
 MOLDEN_FORMAT false
$end