$molecule
0 1
 C        -4.40820719090000    0.50594765380000   -0.58847199920000
 C        -3.53271568490000   -0.34952434490000   -0.07373305810000
 C        -2.09573217070000   -0.13710658620000    0.06354767600000
 C        -1.23630229460000   -1.21798918060000   -0.05431517790000
 C         0.15011168760000   -1.06660568890000    0.02598564960000
 C         1.07162732990000   -2.18973243240000   -0.08017180590000
 C         0.81510625950000   -3.33541556310000   -0.69890888890000
 C         0.61232837450000    0.23505228310000    0.25285488170000
 C         2.07694208620000    0.54458418120000    0.33370087830000
 O         2.63898533760000    0.97900333780000    1.30306693400000
 O         2.67503099120000    0.26560604430000   -0.83120469350000
 C         4.07221089790000    0.51009114020000   -0.93302739990000
 N        -0.18719073090000    1.27277858690000    0.43050632410000
 C        -1.50438955520000    1.11896802040000    0.34851672310000
 N        -2.23525565370000    2.25401285560000    0.54313020210000
 H        -5.45134794100000    0.25156686150000   -0.67290005680000
 H        -4.11554948380000    1.46235060460000   -0.98677282270000
 H        -3.87291633030000   -1.32846784060000    0.24406436410000
 H        -1.65361980420000   -2.20188761170000   -0.21367909100000
 H         2.03731201190000   -2.04008293740000    0.38503222330000
 H        -0.11800181410000   -3.52330386680000   -1.20269117350000
 H         1.54230990260000   -4.12785406800000   -0.73784680850000
 H         4.55344244130000   -0.41318295380000   -1.25575181690000
 H         4.46478941770000    0.82640017300000    0.03549307340000
 H         4.23465255480000    1.29193457200000   -1.67532851820000
 H        -1.70804819730000    3.01979866500000    0.93251406140000
 H        -3.18574894710000    2.14759812980000    0.85851944890000
$end

$rem
 BASIS = 6-31G*
 GUI = 2
 METHOD = B3LYP
 PRINT_ORBITALS false
 MOLDEN_FORMAT false
$end