$molecule
0 1
 C           -3.57850583560000        2.93914641210000        0.04284296270000
 C           -2.27561531530000        2.71301910130000       -0.07001075880000
 C           -1.60811164960000        1.41599700920000       -0.03974374930000
 C           -2.30266980380000        0.20635194510000        0.00191803740000
 C           -1.63238733410000       -1.00572412400000        0.03338014640000
 C           -2.38526622770000       -2.30141652650000        0.06313156860000
 C           -0.24359538890000       -1.01858367170000        0.02291904610000
 C            0.47975751490000        0.17186188110000       -0.02129617360000
 C            1.93410325920000        0.22482547880000       -0.03510607160000
 C            2.79833072330000       -0.77786993060000       -0.00203403950000
 F            2.54472222380000       -2.08059060050000        0.05214583570000
 F            4.11968650400000       -0.59979838840000       -0.01925831920000
 C           -0.21712749310000        1.37868368780000       -0.05442189610000
 H           -3.97686228480000        3.93868703560000        0.01031831430000
 H           -4.29973436090000        2.15109489710000        0.17450727010000
 H           -1.60742869280000        3.55731093140000       -0.19049047640000
 H           -3.38170244850000        0.20843671720000        0.00493083680000
 H           -3.43924255110000       -2.13728083000000        0.27176855390000
 H           -1.97490655610000       -2.96471953700000        0.82192894370000
 H           -2.29962257700000       -2.80483634130000       -0.89968113310000
 H            0.26625379790000       -1.96787408680000        0.04781094910000
 H            2.37909414960000        1.20875898010000       -0.07698295640000
 H            0.33562964350000        2.30699710560000       -0.08782935120000
$end

$rem
 BASIS = 6-31G*
 GUI = 2
 METHOD = B3LYP
 PRINT_ORBITALS false
 MOLDEN_FORMAT false
$end