$molecule
0 1
 C        -3.98039129770000    2.78980210890000   -0.41225473250000
 C        -2.66423379530000    2.62427891460000   -0.38901864870000
 C        -2.04614082480000    1.33518795510000   -0.18761553910000
 N        -2.73583629200000    0.17686411850000   -0.00441307890000
 C        -1.82696258150000   -0.75432045730000    0.14384362970000
 C        -2.24184307950000   -2.12124364090000    0.34258089660000
 C        -1.50860436620000   -3.21795007880000    0.49298141660000
 N        -0.57063007370000   -0.16358210380000    0.05005808190000
 C         0.74920595980000   -0.64433824680000    0.13998134730000
 O         1.02438368120000   -1.77952024070000    0.42157565550000
 O         1.57590624310000    0.33906916910000   -0.12559312320000
 C         3.01535549190000    0.14207804250000   -0.08632527780000
 C         3.57519285160000    1.51615180370000   -0.44971600850000
 C         3.44936327680000   -0.26511686950000    1.32042674770000
 C         3.43058402250000   -0.90296428480000   -1.12024667790000
 N        -0.74598226970000    1.15978181570000   -0.16205132060000
 H        -4.42935495430000    3.75623620640000   -0.56310174040000
 H        -4.64001595490000    1.94942141110000   -0.27888353640000
 H        -1.97070890670000    3.44211133460000   -0.51899008880000
 H        -3.32293891550000   -2.18159564760000    0.35213222090000
 H        -0.43448241240000   -3.20754254540000    0.49509671710000
 H        -1.98914854100000   -4.17276177820000    0.62564217240000
 H         3.23178999940000    2.25696536010000    0.26671545980000
 H         3.22885990430000    1.80862623450000   -1.43694179060000
 H         4.66065806250000    1.48944839800000   -0.44487191250000
 H         3.09307443830000    0.46297545700000    2.04591957540000
 H         4.53376750870000   -0.30723396900000    1.36798995670000
 H         3.04917184260000   -1.24237868360000    1.57671449120000
 H         3.05637625780000   -0.62487143010000   -2.10317163500000
 H         3.03569101990000   -1.88040603970000   -0.85676316940000
 H         4.51446376020000   -0.96232941810000   -1.16094381530000
$end

$rem
 BASIS = 6-31G*
 GUI = 2
 METHOD = B3LYP
 PRINT_ORBITALS false
 MOLDEN_FORMAT false
$end