$molecule
0 1
 C            1.59538688110000        2.90172683750000        1.39475583200000
 C            0.89857503700000        2.71737696340000        0.28630803280000
 C           -0.15484382060000        1.70024994290000        0.11794095750000
 C           -1.44592878740000        2.13582646730000       -0.16135691320000
 C           -2.49266944250000        1.24630988370000       -0.30888940600000
 C           -2.24474016140000       -0.10753551690000       -0.17740329310000
 F           -3.25442596980000       -0.98436319980000       -0.29199395200000
 C           -0.95823185850000       -0.56437047870000        0.07203921650000
 F           -0.75224656940000       -1.88142460180000        0.22742541530000
 C            0.10848198160000        0.32492566350000        0.20951904450000
 C            1.46870996060000       -0.17465734120000        0.41859759780000
 C            1.99957109300000       -1.21059341810000       -0.21170898570000
 F            1.44405835790000       -1.94453330820000       -1.15855659020000
 F            3.24245576700000       -1.62856855220000       -0.00076713960000
 H            2.32890734730000        3.68491004660000        1.47740226810000
 H            1.44508968770000        2.29285159320000        2.27126961500000
 H            1.03754150780000        3.37661653570000       -0.56134949610000
 H           -1.63142493420000        3.19528140580000       -0.25008472980000
 H           -3.49568920250000        1.58221497130000       -0.51597208690000
 H            2.10727080530000        0.35253011410000        1.10719163440000
$end

$rem
 BASIS = 6-31G*
 GUI = 2
 METHOD = B3LYP
 PRINT_ORBITALS false
 MOLDEN_FORMAT false
$end