$molecule
0 1
 C        -4.43070888530000    0.31720287890000    0.68764353620000
 C        -3.62363246580000   -0.65993640120000    0.29280499150000
 C        -2.20430754160000   -0.54694177660000   -0.02097113070000
 C        -1.51728139870000   -1.67901898090000   -0.46018665770000
 C        -0.17255001710000   -1.61035538060000   -0.76858467800000
 C         0.53275775400000   -0.41791283550000   -0.65422351870000
 C         1.99859896470000   -0.38002083430000   -0.98538691100000
 C         2.86559847680000   -0.42818549280000    0.27178001910000
 O         3.86916503210000    0.20665919350000    0.41151195210000
 O         2.43027847300000   -1.26916023630000    1.22055576290000
 C        -0.13775647810000    0.72896311430000   -0.20187623010000
 C         0.57785930350000    1.99591666230000   -0.03066014810000
 C         0.04426224010000    3.18972311840000   -0.24758203540000
 C        -1.49102641950000    0.64340771510000    0.10199649290000
 H        -5.47081071720000    0.13253528290000    0.89410578870000
 H        -4.09881925830000    1.33231261490000    0.82183396460000
 H        -4.02844864130000   -1.65807767920000    0.17606365120000
 H        -2.04168953460000   -2.61803326830000   -0.56212307520000
 H         0.33500681720000   -2.49804634100000   -1.12379389690000
 H         2.26438499070000    0.51311527870000   -1.55111168120000
 H         2.26901365450000   -1.25394900730000   -1.58563327960000
 H         1.58268937440000   -1.67598507650000    0.98010446700000
 H         1.60792723300000    1.92212481680000    0.29168018120000
 H        -0.96707620790000    3.31066852240000   -0.59963063410000
 H         0.60907450150000    4.09391488740000   -0.10040350560000
 H        -1.98876362960000    1.52730614970000    0.46687383880000
$end

$rem
 BASIS = 6-31G*
 GUI = 2
 METHOD = B3LYP
 PRINT_ORBITALS false
 MOLDEN_FORMAT false
$end