$molecule
0 1
 C        -0.84315157620000    4.36059635630000   -0.03291800450000
 C        -1.57912192780000    3.25768112830000    0.02818041980000
 C        -1.09340267360000    1.88169937490000    0.01839075650000
 C        -2.02879712640000    0.84556449560000    0.01037197900000
 C        -1.60189494620000   -0.46987638980000   -0.00155482290000
 Cl       -2.77474081740000   -1.74062870330000   -0.01334202990000
 C        -0.25726326780000   -0.79514932050000   -0.00312503810000
 C         0.69105212800000    0.22951497900000    0.00811344720000
 C         2.12496090350000   -0.01952390870000    0.01008971950000
 C         2.76108433760000   -1.18193809890000   -0.00016046770000
 F         2.24015170640000   -2.40054979240000   -0.01442042120000
 F         4.08792057470000   -1.28057564450000    0.00295862290000
 C         0.25991829350000    1.55456985480000    0.01869217120000
 H        -1.29909324320000    5.33537830520000   -0.02116311420000
 H         0.23101449300000    4.34653572140000   -0.09964661740000
 H        -2.65631491290000    3.35000665330000    0.08613582720000
 H        -3.08487195940000    1.06711519260000    0.01145283150000
 H         0.03649728000000   -1.83070469500000   -0.01164890370000
 H         2.76470473250000    0.85096173150000    0.02100200320000
 H         0.99810311160000    2.34062051820000    0.03092523350000
$end

$rem
 BASIS = 6-31G*
 GUI = 2
 METHOD = B3LYP
 PRINT_ORBITALS false
 MOLDEN_FORMAT false
$end