$molecule
0 1
 C        -3.58305848090000    1.56002203880000   -0.42264126400000
 C        -2.45510248110000    1.76387101670000    0.24491872270000
 C        -1.27387308960000    0.90230539270000    0.20876835220000
 C        -0.04264007200000    1.51751205190000    0.22666369460000
 C         1.11723154990000    0.74312634930000    0.10391369630000
 N         2.38521662560000    1.15827518330000    0.08156550960000
 S         3.33849746080000   -0.12603439470000   -0.08371563680000
 N         2.20858417810000   -1.26900713350000   -0.13232098040000
 C         1.01287986600000   -0.68686870030000   -0.02182424980000
 C        -0.24527697050000   -1.30101817930000    0.00836544730000
 C        -1.37628137400000   -0.52627714240000    0.12508730870000
 C        -2.67856021200000   -1.18055519060000    0.24986576540000
 C        -3.02615698320000   -2.29475803150000   -0.37980377050000
 H        -4.39725304240000    2.26325871430000   -0.37470132680000
 H        -3.72771696890000    0.70193009260000   -1.05714233780000
 H        -2.33523925740000    2.67187913800000    0.82348574790000
 H         0.04294299630000    2.59025699320000    0.30654267480000
 H        -0.30864888530000   -2.37668958550000   -0.02704325480000
 H        -3.37859545200000   -0.69836584460000    0.92015846790000
 H        -2.37231529050000   -2.78054102910000   -1.08485226280000
 H        -3.98958953640000   -2.75086759810000   -0.22943700810000
$end

$rem
 BASIS = 6-31G*
 GUI = 2
 METHOD = B3LYP
 PRINT_ORBITALS false
 MOLDEN_FORMAT false
$end