$molecule
0 1
 C           -1.23145425290000        3.73683814720000        0.00869950840000
 C           -1.98574199830000        2.64460392330000       -0.00181987510000
 C           -1.52086741030000        1.26148686070000       -0.00110300630000
 C           -2.46927759440000        0.23638510140000       -0.00354466000000
 C           -2.10266259320000       -1.09912045990000       -0.00222953290000
 C           -3.10862815260000       -2.20727142930000       -0.00326944440000
 C           -0.74556712100000       -1.39087972660000        0.00132991780000
 F           -0.37265638550000       -2.69190904700000        0.00260630350000
 C            0.24482094660000       -0.40514174650000        0.00276942590000
 C            1.63728779990000       -0.82522865880000        0.00565648330000
 C            2.72121413930000       -0.06480782070000       -0.00061771400000
 F            2.79045958660000        1.26170495580000       -0.01092111850000
 F            3.95618607970000       -0.55894126130000        0.00265793750000
 C           -0.17061170340000        0.92419029880000        0.00169468310000
 H           -1.67375476050000        4.71810625450000        0.00743437860000
 H           -0.15574083950000        3.70685944270000        0.01918726120000
 H           -3.06339816880000        2.75274371620000       -0.01120840880000
 H           -3.52004326450000        0.48827899780000       -0.00627891800000
 H           -4.11965309220000       -1.81122250370000       -0.02910060030000
 H           -2.99112539000000       -2.82228674590000        0.88814327960000
 H           -2.95702081220000       -2.85259874670000       -0.86748442470000
 H            1.81838148230000       -1.89046255720000        0.01298319530000
 H            0.56780548610000        1.70602175960000        0.00279310270000
$end

$rem
 BASIS = 6-31G*
 GUI = 2
 METHOD = B3LYP
 PRINT_ORBITALS false
 MOLDEN_FORMAT false
$end