$molecule
0 1
 C        -3.13311597740000    1.15082103270000    0.00043997730000
 C        -2.64375033320000   -0.08619111920000   -0.00006589020000
 C        -1.24730256020000   -0.42232707260000   -0.00012961900000
 C        -0.70035044750000   -1.68171974900000    0.00016136200000
 C         0.70035103930000   -1.68171930480000    0.00017238110000
 C         1.24730250190000   -0.42232684980000   -0.00013209020000
 C         2.64375010840000   -0.08619081810000   -0.00008565210000
 C         3.13311604510000    1.15082148160000    0.00043491070000
 S        -0.00000024640000    0.78915701840000   -0.00037804250000
 H        -4.19164559570000    1.34083838920000    0.00042964710000
 H        -2.48359807160000    2.01063674930000    0.00068164570000
 H        -3.31121020950000   -0.93912846850000   -0.00037204760000
 H        -1.29768752460000   -2.57680401330000    0.00041723390000
 H         1.29768853190000   -2.57680330150000    0.00043185280000
 H         3.31121032030000   -0.93912995770000   -0.00034855840000
 H         2.48359936290000    2.01063469890000    0.00077526360000
 H         4.19164653900000    1.34083630480000    0.00053158250000
$end

$rem
 BASIS = 6-31G*
 GUI = 2
 METHOD = B3LYP
 PRINT_ORBITALS false
 MOLDEN_FORMAT false
$end