$molecule
0 1
 C         3.56761535390000    1.46358148380000   -0.58493319240000
 C         2.35415773940000    1.80881217550000   -0.17274354560000
 C         1.21665390740000    0.92254443930000   -0.05184746080000
 C        -0.11100921650000    1.29731859710000   -0.17192696480000
 N        -0.85997181540000    0.18794760270000   -0.03787040580000
 C        -2.30776602820000    0.03251506660000   -0.04432591840000
 C        -2.98399553260000    1.31622445940000   -0.51816387880000
 C        -2.64547588850000   -1.12418586080000   -0.98843707780000
 C        -2.74494287420000   -0.30768509410000    1.38454344760000
 N        -0.10790354500000   -0.88257722640000    0.18780982030000
 C         1.15711124460000   -0.47973328530000    0.18328442820000
 C         2.24633974560000   -1.39028564280000    0.46204857470000
 C         2.13994360540000   -2.71112243850000    0.38782736700000
 H         4.36417774900000    2.18547417090000   -0.65003408540000
 H         3.80555067460000    0.45909063910000   -0.88970463430000
 H         2.14763952790000    2.84402298860000    0.07542438050000
 H        -0.52750287690000    2.26525811420000   -0.36004612650000
 H        -2.62542947190000    1.60146078540000   -1.50483850550000
 H        -2.80623254170000    2.13423660700000    0.17615992080000
 H        -4.05677400260000    1.15217529800000   -0.57913033010000
 H        -2.35818136190000   -0.87678361820000   -2.00801537670000
 H        -3.71165886870000   -1.33139276040000   -0.96430197750000
 H        -2.10024718580000   -2.01191137520000   -0.68125804510000
 H        -2.49877774580000    0.50811997670000    2.06128983920000
 H        -2.22756818880000   -1.20312163080000    1.71866017330000
 H        -3.81694015630000   -0.48090665770000    1.42104426670000
 H         3.17625503410000   -0.92361330550000    0.75812607620000
 H         1.21505923500000   -3.17284875480000    0.08864178190000
 H         2.96455336790000   -3.36301767020000    0.62084371240000
$end

$rem
 BASIS = 6-31G*
 GUI = 2
 METHOD = B3LYP
 PRINT_ORBITALS false
 MOLDEN_FORMAT false
$end