$molecule
0 1
 C        -5.23380095800000    1.45353094500000   -0.06682384350000
 C        -4.63038530240000    0.27559325590000    0.03517568130000
 C        -3.19210583720000    0.02730559060000    0.02274519070000
 C        -2.75336311120000   -1.31056320020000   -0.03180776990000
 C        -1.42003772590000   -1.65623967480000   -0.05361999470000
 C        -0.49952245250000   -0.62097971320000   -0.01413900340000
 O         0.84784356450000   -0.71013966590000   -0.02192397790000
 C         1.32344718510000    0.56547855600000    0.03416109190000
 C         2.74167667690000    0.79777781930000    0.03947707200000
 C         3.67497076930000   -0.14665980550000   -0.01115586290000
 F         3.48430335240000   -1.45287526310000   -0.07467971760000
 F         4.97900186830000    0.11386668950000   -0.00416745220000
 C         0.30636847910000    1.47884293680000    0.07900729990000
 C        -0.90433180350000    0.73021708130000    0.04789138880000
 C        -2.25760184590000    1.05243693700000    0.06641416940000
 H        -6.30701217890000    1.53439413540000   -0.05033088360000
 H        -4.69492677500000    2.37883690030000   -0.17602172610000
 H        -5.23883780510000   -0.61574352080000    0.12708632860000
 H        -3.49649187870000   -2.09402461500000   -0.06131456470000
 H        -1.09764324830000   -2.68390156590000   -0.09742471450000
 H         3.06813290540000    1.82349417510000    0.08816829590000
 H         0.40940541300000    2.54345957160000    0.12682762720000
 H        -2.56198705310000    2.08503583300000    0.12160369220000
$end

$rem
 BASIS = 6-31G*
 GUI = 2
 METHOD = B3LYP
 PRINT_ORBITALS false
 MOLDEN_FORMAT false
$end