$molecule
0 1
 C         4.08466669610000   -0.72780003190000    0.07672816590000
 C         3.18980105490000    0.25212338480000    0.06209479130000
 C         1.75194169050000    0.02266614750000   -0.00552522910000
 C         0.86356122270000    1.08953205830000   -0.01726838390000
 C        -0.51437526920000    0.86913803980000   -0.07608753800000
 O        -1.24895012530000    2.00876368470000   -0.01705451960000
 C        -2.65040337820000    1.99086805460000    0.12050272540000
 C        -0.96704438660000   -0.45747976010000   -0.15031267700000
 C        -2.35845197760000   -0.89839859090000   -0.29633625140000
 C        -2.88689589100000   -1.89248034010000    0.40356566100000
 C         0.02539310020000   -1.44666604390000   -0.11950173900000
 N         1.31640000970000   -1.24059727610000   -0.04756503300000
 H         5.14268095930000   -0.53562655060000    0.12640148860000
 H         3.76438521160000   -1.75453575130000    0.03859697780000
 H         3.49468990830000    1.28965003770000    0.09909339540000
 H         1.21300394000000    2.10870066760000    0.03410781410000
 H        -2.91671396230000    2.97316514060000    0.51253644830000
 H        -2.98174564170000    1.21906174610000    0.81865749440000
 H        -3.14421666320000    1.85312743540000   -0.84544958690000
 H        -2.94553415970000   -0.41162847280000   -1.06369863280000
 H        -2.33464922840000   -2.39571186920000    1.17966000070000
 H        -3.89717005760000   -2.22567853830000    0.23856187120000
 H        -0.27636721840000   -2.48483714780000   -0.18122898180000
$end

$rem
 BASIS = 6-31G*
 GUI = 2
 METHOD = B3LYP
 PRINT_ORBITALS false
 MOLDEN_FORMAT false
$end