$molecule
0 1
 C        -4.49681117670000   -0.06372923230000    0.74436773410000
 C        -3.59887050890000   -0.93568603950000    0.30249725240000
 C        -2.20413090420000   -0.66092407280000   -0.02010040610000
 C        -1.44057237210000   -1.64995603330000   -0.64266052960000
 C        -0.11713950460000   -1.42550242350000   -0.95750885390000
 C         0.49703725120000   -0.20837127010000   -0.68335352330000
 C         1.96806164980000   -0.06614642360000   -0.97736793030000
 C         2.75906373450000   -0.46828202050000    0.26432823820000
 O         3.45576481180000   -1.43729028870000    0.32702816290000
 O         2.60898614470000    0.35704762310000    1.30974952560000
 C        -0.25336855600000    0.79344135030000   -0.05572214380000
 C         0.28333530790000    2.12376773560000    0.29409713560000
 C         0.82281701550000    2.98184612530000   -0.55953148380000
 C        -1.58089603910000    0.54762329580000    0.27531444290000
 H        -5.50992394800000   -0.36203080490000    0.95217352310000
 H        -4.26979862330000    0.97527357460000    0.91157316250000
 H        -3.90069166210000   -1.96329961560000    0.14053475210000
 H        -1.89094306710000   -2.60404080680000   -0.87456899970000
 H         0.46250238360000   -2.20968212440000   -1.42176418330000
 H         2.23500519320000    0.95725965980000   -1.23955466970000
 H         2.25570214400000   -0.73207784030000   -1.79041277090000
 H         1.99428556260000    1.08456817660000    1.11636932860000
 H         0.12868182960000    2.42123835570000    1.32641002470000
 H         0.92766357230000    2.75732801470000   -1.60861318090000
 H         1.15595912280000    3.95699556460000   -0.24665632040000
 H        -2.13463856480000    1.32975241130000    0.77240188540000
$end

$rem
 BASIS = 6-31G*
 GUI = 2
 METHOD = B3LYP
 PRINT_ORBITALS false
 MOLDEN_FORMAT false
$end