$molecule
0 1
 C         3.87143018480000    0.34661768800000    0.07473173410000
 C         2.66211211040000    0.87430768470000   -0.07181539600000
 C         1.38983331910000    0.16338495710000   -0.04351756830000
 C         1.29075728350000   -1.22389698100000    0.06110756910000
 C         0.05403455660000   -1.83676029080000    0.07861607970000
 C        -1.12396186490000   -1.10722512300000   -0.00668222270000
 C        -2.44727010080000   -1.81013676820000    0.03283464370000
 C        -1.04363658840000    0.28912151590000   -0.10995245370000
 C        -2.25636268760000    1.10220320620000   -0.21078014220000
 C        -2.39056224530000    2.32500280170000    0.28357115960000
 C         0.20768327530000    0.89477328520000   -0.13031374140000
 H         4.75695799900000    0.95796487390000    0.03962577590000
 H         4.03358655180000   -0.70534673530000    0.23557081460000
 H         2.57394355670000    1.94362094390000   -0.22430220350000
 H         2.18154351850000   -1.82921649620000    0.12309450590000
 H        -0.00041980470000   -2.91366160530000    0.16083038660000
 H        -2.30953150150000   -2.87228491350000    0.22055204490000
 H        -2.97115531670000   -1.69739022440000   -0.91688956000000
 H        -3.08060753110000   -1.39728060750000    0.81678982590000
 H        -3.09178202300000    0.64363488980000   -0.72350974790000
 H        -1.60092579640000    2.81161079920000    0.83153882200000
 H        -3.30570472220000    2.88204565000000    0.17475351320000
 H         0.26320555340000    1.96904574020000   -0.23515878980000
$end

$rem
 BASIS = 6-31G*
 GUI = 2
 METHOD = B3LYP
 PRINT_ORBITALS false
 MOLDEN_FORMAT false
$end