$molecule
0 1
 C         3.75616417810000   -0.04796079430000    0.62776660890000
 C         2.79797631300000   -0.62817939900000   -0.08122881120000
 C         1.38436886780000   -0.24933643260000   -0.11041471510000
 C         0.44949120930000   -1.28257452900000   -0.14774831830000
 C        -0.91907624930000   -1.07145587080000   -0.13323261070000
 C        -1.83394715700000   -2.25827478130000   -0.19215488620000
 C        -1.38435352470000    0.24934995130000   -0.11032836310000
 C        -2.79795762460000    0.62820134960000   -0.08113129020000
 C        -3.75623173120000    0.04787233300000    0.62766433140000
 C        -0.44947582960000    1.28259033860000   -0.14759472400000
 C         0.91909490080000    1.07146900100000   -0.13316858150000
 C         1.83395713910000    2.25830035340000   -0.19199387600000
 H         4.76799107130000   -0.41767430260000    0.61029409030000
 H         3.57006742040000    0.79233056370000    1.27307347390000
 H         3.03767141510000   -1.50878696470000   -0.66683882240000
 H         0.81445676780000   -2.30103481990000   -0.17227593210000
 H        -1.35223173800000   -3.07554263090000   -0.72570538850000
 H        -2.76660204630000   -2.00946488080000   -0.69277045160000
 H        -2.06832482860000   -2.61172859140000    0.81220924120000
 H        -3.03758367380000    1.50895941570000   -0.66654561300000
 H        -3.57025248570000   -0.79258082830000    1.27279065870000
 H        -4.76804399790000    0.41761676220000    0.61014627810000
 H        -0.81443369380000    2.30105716470000   -0.17197657720000
 H         1.35236250410000    3.07547650390000   -0.72579444830000
 H         2.76674982180000    2.00944962560000   -0.69232520770000
 H         2.06804843580000    2.61190487060000    0.81238508390000
$end

$rem
 BASIS = 6-31G*
 GUI = 2
 METHOD = B3LYP
 PRINT_ORBITALS false
 MOLDEN_FORMAT false
$end