$molecule
0 1
 C        -3.95146398600000    2.39224169050000   -0.04353871460000
 C        -2.62635594400000    2.37153212380000    0.03105293710000
 C        -1.77408870570000    1.18766507920000    0.01919832340000
 C        -2.28670783970000   -0.10989368720000    0.01035155590000
 C        -1.41024318860000   -1.17565645410000   -0.00129058500000
 F        -1.91679824270000   -2.42572468810000   -0.00873074260000
 C        -0.03740510380000   -1.02186395960000   -0.00470380350000
 C         0.48755154270000    0.27081503640000    0.00572427320000
 C         1.91550309000000    0.54892817990000    0.00482400050000
 C         2.92095787810000   -0.31414442400000   -0.00293139920000
 F         2.86090016010000   -1.63802686840000   -0.01189870670000
 F         4.19729147640000    0.06048385470000   -0.00258261190000
 C        -0.39066410780000    1.35380256310000    0.01883427510000
 H        -4.49590851930000    3.32050978800000   -0.02922718020000
 H        -4.54724795140000    1.49970718980000   -0.12457916980000
 H        -2.08966935880000    3.30923147870000    0.10294160710000
 H        -3.34674580270000   -0.30088579870000    0.01659587910000
 H         0.58833094390000   -1.89770735460000   -0.01393352210000
 H         2.20425255510000    1.58986010750000    0.01156969070000
 H         0.01462996500000    2.35529375900000    0.02703743580000
$end

$rem
 BASIS = 6-31G*
 GUI = 2
 METHOD = B3LYP
 PRINT_ORBITALS false
 MOLDEN_FORMAT false
$end