$molecule
0 1
 C         3.76652484920000    0.32559094200000   -0.00997984430000
 C         2.76925845470000   -0.55139015490000    0.00332149710000
 C         1.35261946060000   -0.23340260830000    0.00316340280000
 C         0.39113081800000   -1.25226179360000    0.00188561190000
 N        -0.90302465300000   -1.02453188660000    0.00059439520000
 C        -1.30283509480000    0.24835098260000    0.00067297730000
 C        -2.72819471730000    0.53959335050000   -0.00192983470000
 C        -3.66269777340000   -0.40346320080000   -0.00507399160000
 N        -0.47672023260000    1.29624365510000    0.00348343990000
 C         0.81719517690000    1.05991558340000    0.00499461040000
 H         4.79339384230000    0.00331088690000   -0.00936668210000
 H         3.60421841600000    1.38969583570000   -0.02252716590000
 H         2.99041487510000   -1.61221294490000    0.01422313990000
 H         0.68738172570000   -2.29571565310000    0.00152327520000
 H        -2.96959800460000    1.59267161950000   -0.00138794070000
 H        -3.38806497200000   -1.44457809200000   -0.00560816010000
 H        -4.71240114960000   -0.16512861210000   -0.00710717260000
 H         1.44948768020000    1.93859977980000    0.00868333100000
$end

$rem
 BASIS = 6-31G*
 GUI = 2
 METHOD = B3LYP
 PRINT_ORBITALS false
 MOLDEN_FORMAT false
$end