$molecule
0 1
 C         4.24619940450000    0.80643288010000   -0.05529674050000
 C         3.34981275570000   -0.16542688210000   -0.18559092520000
 C         1.90121323510000   -0.06303230100000   -0.08184091200000
 C         1.13455076790000   -1.22205464690000   -0.20988141560000
 C        -0.25193751610000   -1.25425473690000   -0.12161069210000
 C        -0.91291358780000   -2.55031443520000   -0.25177358040000
 C        -2.01116987630000   -2.93452274150000    0.38337433770000
 C        -0.93410690300000   -0.03941460750000    0.06539226050000
 S        -2.69815825380000    0.00333405470000    0.07672685190000
 C        -3.07005601940000    1.71584794990000   -0.41216686440000
 C        -0.19964446780000    1.13050059670000    0.20425679250000
 C         1.17771987850000    1.11093865860000    0.13688813500000
 F         1.80023159000000    2.30110744910000    0.28465248500000
 H         5.29821234080000    0.59789061170000   -0.15418531900000
 H         3.98576348190000    1.82816823340000    0.15181435720000
 H         3.69650241440000   -1.17154183080000   -0.39054254360000
 H         1.65159957600000   -2.15686763360000   -0.37575265430000
 H        -0.40270481780000   -3.24847587390000   -0.90444003840000
 H        -2.52340786650000   -2.30173016940000    1.08662486230000
 H        -2.42565615870000   -3.91722987420000    0.23613859600000
 H        -4.11911222510000    1.71247825490000   -0.69191911080000
 H        -2.45922054940000    1.99562228530000   -1.26476558190000
 H        -2.92015566110000    2.39528754090000    0.42188410340000
 H        -0.67804498450000    2.08113398140000    0.37408206700000
$end

$rem
 BASIS = 6-31G*
 GUI = 2
 METHOD = B3LYP
 PRINT_ORBITALS false
 MOLDEN_FORMAT false
$end