$molecule
0 1
 C         2.93063244530000   -1.11550642840000    0.24727280180000
 C         1.68606380530000   -1.13386040140000   -0.21447167160000
 C         0.73449490400000   -0.04768419230000   -0.06941496500000
 C         1.11062487230000    1.31881212760000    0.04281689230000
 C         0.05566400790000    2.16675795450000    0.06698486280000
 S        -1.44542052850000    1.33790403580000   -0.04569794770000
 C        -0.63708490360000   -0.20187187070000   -0.11770796310000
 C        -1.44299097640000   -1.39511740730000   -0.17851284970000
 C        -1.09166450010000   -2.59206972430000    0.28350169400000
 H         3.60236950470000   -1.94130860300000    0.08776477070000
 H         3.31959279040000   -0.28720654170000    0.81517064040000
 H         1.32226312990000   -1.99785213420000   -0.75597036980000
 H         2.13392819780000    1.64649937610000    0.07708047680000
 H         0.06047588580000    3.23618145280000    0.14174186010000
 H        -2.42711280730000   -1.25586272880000   -0.60932981700000
 H        -0.15267490030000   -2.76335850460000    0.78030452490000
 H        -1.75257813440000   -3.43709047240000    0.19623268290000
$end

$rem
 BASIS = 6-31G*
 GUI = 2
 METHOD = B3LYP
 PRINT_ORBITALS false
 MOLDEN_FORMAT false
$end