$molecule
0 1
 C        -4.21483367390000   -0.27111455870000   -0.01292852270000
 C        -3.31046407680000    0.69969449560000    0.02495304290000
 C        -1.86213783090000    0.53452608540000    0.04945098120000
 C        -1.21729995080000   -0.70144160960000    0.06013015180000
 C         0.17278217560000   -0.77491750790000    0.06489815970000
 C         0.86261382380000   -2.06219972430000    0.05125433290000
 C         0.37279997780000   -3.16402384990000   -0.50214760580000
 C         0.88235637520000    0.44228341940000    0.06715904470000
 C         2.37061473350000    0.51348441120000    0.09340649870000
 O         3.07498653950000   -0.20724300150000    0.74458311880000
 O         2.90957442120000    1.48773037060000   -0.66599500620000
 C         0.14058332630000    1.62488931020000    0.08179007490000
 N        -1.17128643080000    1.67818766710000    0.06895197650000
 H        -5.26816156030000   -0.05035219320000   -0.02755002470000
 H        -3.95352199340000   -1.31573745760000   -0.02896608070000
 H        -3.61966235810000    1.73580366880000    0.03865898710000
 H        -1.79328759370000   -1.61153337190000    0.08315376410000
 H         1.84092881050000   -2.06973931600000    0.50815505020000
 H        -0.57937190340000   -3.18693106960000   -1.00737787080000
 H         0.92448908950000   -4.08788358770000   -0.48904897020000
 H         2.24662309720000    1.99130075870000   -1.15705758250000
 H         0.63368114440000    2.59019167480000    0.13687981030000
$end

$rem
 BASIS = 6-31G*
 GUI = 2
 METHOD = B3LYP
 PRINT_ORBITALS false
 MOLDEN_FORMAT false
$end