$molecule
0 1
 C         3.52272757520000    1.15962471160000   -0.74198384580000
 C         2.38765570410000    1.52800954130000   -0.16373639300000
 C         1.19880704350000    0.70770505780000   -0.03166533120000
 C        -0.09280868870000    1.20626412220000   -0.07190859870000
 N        -0.93838517110000    0.16193180240000   -0.02114499210000
 C        -2.39388914100000    0.12860950150000   -0.03454586340000
 C        -2.96344842510000    1.53819163580000   -0.16534455290000
 C        -2.82588009820000   -0.73349355110000   -1.22446457570000
 C        -2.85528190930000   -0.51397410440000    1.27727978940000
 N        -0.27879550800000   -0.98681383500000    0.06479377990000
 C         1.01797171430000   -0.69981064460000    0.07021182510000
 C         1.95872755480000   -1.78899430510000    0.24753796210000
 C         3.15718111530000   -1.69611637560000    0.80748871990000
 H         4.35417799420000    1.83802243780000   -0.83203069810000
 H         3.65904270300000    0.17183600630000   -1.14783301200000
 H         2.27432667340000    2.54308930640000    0.20085481190000
 H        -0.42131619710000    2.22186350180000   -0.15312609530000
 H        -2.63197286390000    2.00872807570000   -1.08837756450000
 H        -2.66836343520000    2.15871467970000    0.67788470960000
 H        -4.04888206160000    1.48311469080000   -0.18268312890000
 H        -2.50938402760000   -0.27530404160000   -2.15914663970000
 H        -3.90642747480000   -0.84563066540000   -1.23726024180000
 H        -2.36540568580000   -1.71440650620000   -1.14588136660000
 H        -2.55710829630000    0.09903006820000    2.12529570680000
 H        -2.39761148430000   -1.49402393410000    1.38048673280000
 H        -3.93637814590000   -0.62152290790000    1.28567493950000
 H         1.56877385790000   -2.75168810880000   -0.05729421470000
 H         3.55264573090000   -0.75876684740000    1.15977997990000
 H         3.78336767330000   -2.56241886690000    0.93805466440000
$end

$rem
 BASIS = 6-31G*
 GUI = 2
 METHOD = B3LYP
 PRINT_ORBITALS false
 MOLDEN_FORMAT false
$end