$molecule
0 1
 C        -4.00322579430000    2.01411642580000   -0.60973566450000
 C        -3.46039586650000    1.03907735140000    0.10630342310000
 C        -2.03132910800000    0.72473853820000    0.12255096290000
 C        -1.10736314420000    1.76912077180000    0.04560646130000
 C         0.25208933850000    1.52708261810000    0.04380173140000
 C         0.69290961960000    0.22002086660000    0.12671571780000
 S         2.45043535520000   -0.12323434330000    0.08780745230000
 C         2.79407377750000   -0.25948084570000   -1.69435340920000
 O         3.16787491640000    1.01454061350000    0.59555372740000
 O         2.69460398810000   -1.40664751420000    0.68874040830000
 C        -0.19167270150000   -0.83051593810000    0.21203475130000
 C        -1.56828340890000   -0.60384601990000    0.20954034430000
 C        -2.48807914380000   -1.73760977460000    0.27982527800000
 C        -2.23278530650000   -2.94554729960000   -0.20505817550000
 H        -5.06069310930000    2.21286627310000   -0.58144923930000
 H        -3.41920394840000    2.63527088840000   -1.26809273730000
 H        -4.09806663600000    0.42018224970000    0.72255532610000
 H        -1.47075234650000    2.78474219580000    0.00830174600000
 H         0.97525532920000    2.32614011170000    0.00635037950000
 H         2.54626990170000    0.68655449120000   -2.15731352840000
 H         2.19012933750000   -1.06491795330000   -2.09100762840000
 H         3.84783341030000   -0.47826135860000   -1.81300909660000
 H         0.20571152220000   -1.82760471370000    0.31698096970000
 H        -3.44212353160000   -1.55468350890000    0.75431885680000
 H        -1.31576238670000   -3.17824230050000   -0.71925394340000
 H        -2.94547812040000   -3.74744260510000   -0.11838419270000
$end

$rem
 BASIS = 6-31G*
 GUI = 2
 METHOD = B3LYP
 PRINT_ORBITALS false
 MOLDEN_FORMAT false
$end