$molecule
0 1
 C         3.35079281500000    2.09737192960000    0.59672357110000
 C         2.17349126250000    1.48961291220000    0.69068120360000
 C         1.89631911750000    0.14559467460000    0.22386058150000
 C         2.89506036250000   -0.84668699620000    0.03512826520000
 C         2.39900909030000   -2.04607502490000   -0.34820637790000
 S         0.68764701670000   -2.02381506030000   -0.50173085580000
 C         0.62579126300000   -0.34711145390000   -0.02285817370000
 C        -0.62579023530000    0.34907710150000   -0.02202868890000
 S        -0.69061127960000    2.02514193470000   -0.50271380200000
 C        -2.40178322820000    2.04533561810000   -0.34675785150000
 C        -2.89570654340000    0.84565161770000    0.03850482270000
 C        -1.89531490330000   -0.14492446120000    0.22690041440000
 C        -2.17048086230000   -1.48899925000000    0.69519403940000
 C        -3.34452809660000   -2.10148489650000    0.59261423950000
 H         3.49854838510000    3.09217927110000    0.97929661790000
 H         4.20169525990000    1.63700859220000    0.12413723860000
 H         1.34255317670000    2.00881621550000    1.14959648680000
 H         3.94110234370000   -0.66748547680000    0.20385528420000
 H         2.92960814010000   -2.95662036810000   -0.54412711800000
 H        -2.93383053320000    2.95502150260000   -0.54272223440000
 H        -3.94118385360000    0.66500488120000    0.20928328020000
 H        -1.34117175800000   -2.00342870050000    1.16245933330000
 H        -4.19273516580000   -1.64538998990000    0.11105033750000
 H        -3.49204674730000   -3.09587269440000    0.97638584260000
$end

$rem
 BASIS = 6-31G*
 GUI = 2
 METHOD = B3LYP
 PRINT_ORBITALS false
 MOLDEN_FORMAT false
$end