$molecule
0 1
 C        -3.62154173290000    0.25070263260000   -0.89048306380000
 C        -2.98067225500000   -0.44915635760000    0.03218710020000
 C        -1.52972717280000   -0.64357794470000    0.07185722600000
 C        -0.98178184200000   -1.88695084780000    0.19514370470000
 S         0.72599443470000   -1.87478734710000    0.17982989550000
 C         0.74482007970000   -0.13564322530000    0.04006595960000
 C         2.02568536950000    0.55975420860000   -0.17120553400000
 O         2.12163102130000    1.64660262860000   -0.67260970380000
 O         3.13014832080000   -0.11592588560000    0.20556610540000
 C        -0.53368247220000    0.38266835670000    0.00573416500000
 C        -0.86430993080000    1.80092295890000    0.03547020080000
 C        -0.22408213470000    2.70258867600000    0.76539909290000
 H        -4.69404566740000    0.34160612600000   -0.88202778020000
 H        -3.10687411480000    0.74131296790000   -1.69970456680000
 H        -3.53488624990000   -0.97331887270000    0.80086886250000
 H        -1.49775385770000   -2.82449167090000    0.26890049870000
 H         2.93713982210000   -0.98285229470000    0.58693544000000
 H        -1.73900865790000    2.08770133180000   -0.52907951050000
 H         0.62893481840000    2.45210250710000    1.37159609210000
 H        -0.53192922270000    3.73347019960000    0.77317355740000
$end

$rem
 BASIS = 6-31G*
 GUI = 2
 METHOD = B3LYP
 PRINT_ORBITALS false
 MOLDEN_FORMAT false
$end