$molecule
0 1
 C        -5.93047227790000   -1.36643076530000    0.02178374950000
 C        -5.48889831130000   -0.11125842820000    0.01380519700000
 C        -4.10664581630000    0.27639226100000    0.00431550290000
 C        -3.60576611120000    1.55614183460000    0.00118729450000
 C        -2.20857030510000    1.61276335820000   -0.00607055970000
 C        -1.61648169640000    0.37154126830000   -0.00925436770000
 C        -0.22802369300000    0.05819150000000   -0.01330841360000
 C         0.36505145700000   -1.18364096390000   -0.02226302780000
 C         1.76202606640000   -1.13635574260000   -0.01935533540000
 C         2.26162463300000    0.14421212970000   -0.00794375910000
 C         3.61625935040000    0.61339402090000    0.00146564340000
 C         4.70873938540000   -0.14351260220000    0.00859718610000
 F         4.75749922870000   -1.47121743680000    0.00730261960000
 F         5.94519753600000    0.34619908750000    0.01852880160000
 S         0.97303136380000    1.31464680530000   -0.00225991160000
 S        -2.81572607150000   -0.88961145120000   -0.00325028720000
 H        -6.98079100070000   -1.59658885560000    0.02945348140000
 H        -5.24854613710000   -2.20090226600000    0.02111321000000
 H        -6.18764330890000    0.71588173910000    0.01490779070000
 H        -4.23675387440000    2.42736128640000    0.00481544130000
 H        -1.63903623330000    2.52557041140000   -0.00883786910000
 H        -0.20658588710000   -2.09466604370000   -0.03047338530000
 H         2.38476377500000   -2.01174396230000   -0.02522995660000
 H         3.77125371550000    1.68151579990000    0.00485693260000
$end

$rem
 BASIS = 6-31G*
 GUI = 2
 METHOD = B3LYP
 PRINT_ORBITALS false
 MOLDEN_FORMAT false
$end