$molecule
0 1
 C        -4.20643611730000   -0.14846099000000    0.00383151060000
 C        -2.99110252070000    0.39591024220000   -0.00142250730000
 C        -1.77608748600000   -0.37359537760000   -0.00213905730000
 C        -0.54941474000000    0.17378060010000   -0.00276428230000
 C         0.65924340240000   -0.60341845880000   -0.00189629980000
 C         1.87622869290000   -0.07085446130000    0.00008535650000
 F         2.15570412570000    1.22846399270000    0.00124979710000
 F         3.00735099130000   -0.76992525280000    0.00144334050000
 H        -5.09985493460000    0.45107416340000    0.00496503230000
 H        -4.34495874420000   -1.21722033890000    0.00755543070000
 H        -2.87735689020000    1.47212903890000   -0.00479260190000
 H        -1.88297178960000   -1.45069996420000   -0.00146126450000
 H        -0.43443221880000    1.24915234320000   -0.00327483240000
 H         0.58848036780000   -1.68009555360000   -0.00245063100000
$end

$rem
 BASIS = 6-31G*
 GUI = 2
 METHOD = B3LYP
 PRINT_ORBITALS false
 MOLDEN_FORMAT false
$end