$molecule
0 1
 C         4.23992709290000    1.83870312240000   -0.15190658060000
 C         2.94448737590000    2.11462978790000   -0.03196805130000
 C         1.90400963820000    1.11961105300000    0.00621028180000
 C         0.54705880600000    1.26349734010000    0.12695002040000
 C        -0.00983448980000   -0.04193391420000    0.11100177600000
 C        -1.44640736710000   -0.30608188430000    0.21820333040000
 O        -1.98661131980000   -1.38757744960000    0.21958212320000
 O        -2.12642988070000    0.84732163700000    0.33110352990000
 C        -3.54476611450000    0.74976523010000    0.43047742680000
 C        -4.19308071870000    0.60073889170000   -0.93902410100000
 C         1.07015757030000   -0.91356821150000   -0.02214076430000
 C         1.25334721150000   -2.33956313670000   -0.10829190430000
 C         0.30995075830000   -3.27652660820000   -0.06909669550000
 O         2.20874779930000   -0.19614233730000   -0.08334929340000
 H         4.98326463420000    2.61548623340000   -0.17546488590000
 H         4.58960985610000    0.82343184240000   -0.22943464730000
 H         2.59206561090000    3.13337171510000    0.04606584320000
 H        -0.00068908510000    2.17813627400000    0.21739112940000
 H        -3.85841162860000    1.67671132730000    0.91561135960000
 H        -3.79946913790000   -0.10739156700000    1.06299494550000
 H        -3.90288067310000    1.42629419080000   -1.58471931370000
 H        -5.27403029860000    0.59484028110000   -0.83196489810000
 H        -3.87899680980000   -0.33387650090000   -1.39717330730000
 H         2.29634470490000   -2.61325998600000   -0.21500862710000
 H        -0.73050159660000   -3.02967700790000    0.03700358460000
 H         0.56989477990000   -4.31846056380000   -0.14449036310000
$end

$rem
 BASIS = 6-31G*
 GUI = 2
 METHOD = B3LYP
 PRINT_ORBITALS false
 MOLDEN_FORMAT false
$end