$molecule
0 1
 C         3.94789716920000   -2.07253413250000    0.12948599390000
 C         3.72479232910000   -0.77778909320000   -0.06152355130000
 C         2.43101635340000   -0.10545493790000   -0.04246070120000
 C         2.41091092160000    1.30966654870000   -0.05342096900000
 C         1.23640101640000    2.00270611200000   -0.02898437710000
 C        -0.00003364250000    1.32652647280000   -0.00012963310000
 C        -1.23649379310000    2.00268115340000    0.02838170920000
 C        -2.41098010350000    1.30961103020000    0.05318540050000
 C        -2.43099894090000   -0.10550606540000    0.04290026250000
 C        -3.72471814190000   -0.77795858410000    0.06236022170000
 C        -3.94782868720000   -2.07242619170000   -0.13076275960000
 C        -1.22971895780000   -0.77895929490000    0.02083681830000
 C         0.00000221080000   -0.09364096280000    0.00026495580000
 C         1.22974166800000   -0.77892200630000   -0.01995467460000
 H         4.94416591450000   -2.47944469860000    0.10056635050000
 H         3.15784358820000   -2.77645930630000    0.32755151880000
 H         4.56961640190000   -0.12242136920000   -0.23779815530000
 H         3.35209125580000    1.84128448820000   -0.07637320900000
 H         1.23714920060000    3.08379369450000   -0.03389784820000
 H        -1.23728460990000    3.08377051780000    0.03278523440000
 H        -3.35218949660000    1.84118036270000    0.07598698720000
 H        -4.56941062600000   -0.12293670350000    0.24059009300000
 H        -3.15781933420000   -2.77580048150000   -0.33121169020000
 H        -4.94404776390000   -2.47950771980000   -0.10193324860000
 H        -1.20929078010000   -1.85861916660000    0.02899253140000
 H         1.20930254980000   -1.85858064510000   -0.02738805990000
$end

$rem
 BASIS = 6-31G*
 GUI = 2
 METHOD = B3LYP
 PRINT_ORBITALS false
 MOLDEN_FORMAT false
$end