$molecule
0 1
 C        -3.13711553160000   -2.02580618550000   -0.63536161390000
 C        -1.99593248910000   -2.09499055740000    0.03899377920000
 C        -0.97380532940000   -1.04807265120000    0.05103749220000
 C         0.36561167510000   -1.42660322060000    0.06031191530000
 C         1.39646677170000   -0.50226669260000   -0.03757149730000
 C         2.78399144590000   -1.05492257830000    0.05350935920000
 O         3.06512787290000   -2.15710971880000   -0.32677723590000
 O         3.70662940280000   -0.27247749370000    0.63927758270000
 C         1.10267517680000    0.86260432710000   -0.19710235510000
 C         2.14163938400000    1.86863621120000   -0.43960086300000
 C         2.11165857870000    3.10375506060000    0.04429670940000
 C        -0.23545593350000    1.24388163540000   -0.17432321250000
 C        -1.26330700630000    0.32436422270000   -0.01856334200000
 C        -2.64042686170000    0.89871047290000    0.10531706920000
 O        -3.03289673710000    1.80616175290000   -0.57179205550000
 O        -3.39848110220000    0.39486314800000    1.09684226190000
 H        -3.83386073470000   -2.84582239910000   -0.64633029530000
 H        -3.41127179250000   -1.15861032110000   -1.21384711170000
 H        -1.72751920350000   -3.00519989570000    0.56031819250000
 H         0.62981991650000   -2.47156716070000    0.13191450230000
 H         3.35550568250000    0.59201994400000    0.89937636420000
 H         2.95928474010000    1.55822669150000   -1.07948445950000
 H         1.32292342010000    3.44408679210000    0.69457180070000
 H         2.88476965920000    3.81651225780000   -0.18399881310000
 H        -0.49722868270000    2.28426769500000   -0.29471502450000
 H        -2.98620445120000   -0.36478459650000    1.53006369350000
$end

$rem
 BASIS = 6-31G*
 GUI = 2
 METHOD = B3LYP
 PRINT_ORBITALS false
 MOLDEN_FORMAT false
$end