$molecule
0 1
 C        -4.78688182250000    1.86914902020000   -0.81035472900000
 C        -3.56050516490000    2.08091906960000   -0.34833066190000
 C        -2.54358550690000    1.06974824010000   -0.09450569340000
 C        -2.69480774630000   -0.28349951610000   -0.38802774840000
 C        -1.71896855420000   -1.24473562490000   -0.14542602250000
 C        -2.03125289270000   -2.61833781100000   -0.52240722330000
 C        -1.25091387990000   -3.69216494090000   -0.47712930820000
 C        -0.50263140710000   -0.82762320600000    0.44347641340000
 O         0.43621820430000   -1.77064373190000    0.69916254830000
 C         1.65169006930000   -1.39187481510000    1.31069980640000
 C         2.53918118010000   -0.53019344370000    0.44387616940000
 C         3.45628100940000    0.33444006190000    1.02741230540000
 C         4.28112012340000    1.11372349640000    0.23653803800000
 C         4.19167715540000    1.04058147220000   -1.14343814700000
 C         3.27896297730000    0.18066271890000   -1.72928174690000
 C         2.45868109960000   -0.60539765360000   -0.93971442200000
 C        -0.32305030750000    0.51813321960000    0.74209019370000
 C        -1.32244883540000    1.42971957340000    0.47212689140000
 F        -1.08227014630000    2.72330992340000    0.78512989290000
 H        -5.47107183150000    2.68540840340000   -0.96410569940000
 H        -5.16161564870000    0.88892938010000   -1.04993537780000
 H        -3.25189318600000    3.09278819180000   -0.11958117610000
 H        -3.62032072650000   -0.60888142310000   -0.83699165010000
 H        -3.04263684240000   -2.73716642820000   -0.89462098960000
 H        -0.23671700480000   -3.66360619880000   -0.12760884260000
 H        -1.62323264890000   -4.65113421940000   -0.79831420850000
 H         2.15576458360000   -2.34516050910000    1.51112082640000
 H         1.46234211510000   -0.90062968400000    2.27491877560000
 H         3.52236892330000    0.39709400430000    2.10475061740000
 H         4.99071842210000    1.78371420260000    0.69886632340000
 H         4.83135228840000    1.65423933610000   -1.75994322030000
 H         3.20467497850000    0.11986519420000   -2.80486640620000
 H         1.74594332180000   -1.27727231200000   -1.39541406230000
 H         0.59279892010000    0.88757056320000    1.17284121400000
$end

$rem
 BASIS = 6-31G*
 GUI = 2
 METHOD = B3LYP
 PRINT_ORBITALS false
 MOLDEN_FORMAT false
$end