$molecule
0 1
 C        -4.33778083400000   -1.80872018010000   -0.01659108700000
 C        -3.08972004030000   -2.09253770870000    0.34220033290000
 C        -1.99199326730000   -1.17174607110000    0.21006243010000
 N        -0.75650080340000   -1.41564803220000    0.55270963500000
 C        -0.06002280150000   -0.28866363530000    0.25195615130000
 C         1.40491595020000   -0.21133888630000    0.47381070300000
 O         1.95138025930000   -0.36902222610000    1.53139297830000
 O         2.03623869290000    0.03656376120000   -0.67971169470000
 C         3.46438268820000    0.10107508180000   -0.63285876830000
 C         3.95431542540000    1.47793462180000   -0.20808513670000
 C        -0.93452105360000    0.64386345850000   -0.27755932300000
 C        -0.80240118590000    2.00338736300000   -0.72870810720000
 C         0.24944149890000    2.78130020140000   -0.49644078840000
 O        -2.15928644370000    0.06516607260000   -0.30091946340000
 H        -5.13248618850000   -2.52390435300000    0.09953047440000
 H        -4.59775047870000   -0.85124710540000   -0.43586071970000
 H        -2.81046725110000   -3.04537327840000    0.76504337090000
 H         3.78880538870000   -0.13606842800000   -1.64790356710000
 H         3.82803592730000   -0.66032409640000    0.06481941800000
 H         3.56113929770000    2.24151745330000   -0.87532012720000
 H         5.03974636380000    1.50170142380000   -0.24367316440000
 H         3.63442720870000    1.69019638680000    0.80944788990000
 H        -1.66173643820000    2.37559045360000   -1.27028541080000
 H         1.09582884260000    2.43692822530000    0.07018293160000
 H         0.28693805260000    3.79174347190000   -0.86314573770000
$end

$rem
 BASIS = 6-31G*
 GUI = 2
 METHOD = B3LYP
 PRINT_ORBITALS false
 MOLDEN_FORMAT false
$end