$molecule
0 1
 C        -3.89239731000000    1.11151268940000    0.44963540530000
 C        -3.28103570840000    0.02861147550000   -0.01747576690000
 C        -1.84635005480000   -0.19872712570000   -0.10369730240000
 C        -1.37562765390000   -1.44021987550000   -0.53597890340000
 C        -0.02549103900000   -1.70309064000000   -0.57972827480000
 C         0.92659124280000   -0.74312069300000   -0.22683174110000
 N         2.27444081280000   -1.08880430000000   -0.28132068360000
 C         3.13059148760000   -0.87999870550000    0.86984645830000
 C         0.47223492230000    0.54565377240000    0.11906373710000
 C         1.33744462060000    1.71063309920000    0.31059715510000
 C         2.45590853830000    1.95916591320000   -0.35847902980000
 C        -0.89710748120000    0.76989898710000    0.20993146440000
 H        -4.96647293300000    1.18118602560000    0.47361827240000
 H        -3.35788386920000    1.96628054070000    0.82714393450000
 H        -3.88549260150000   -0.79773680610000   -0.37349461180000
 H        -2.07914970830000   -2.21265071500000   -0.81325185430000
 H         0.31642585190000   -2.68351416380000   -0.88686008030000
 H         2.38846371020000   -2.02928686880000   -0.64402736810000
 H         3.02951521590000    0.14073287850000    1.22785694600000
 H         4.16449209370000   -1.04522423530000    0.56747930750000
 H         2.89247862890000   -1.56420334210000    1.69482956590000
 H         0.95132125000000    2.45549125530000    0.99750438460000
 H         2.85067827060000    1.26326152930000   -1.07850609140000
 H         3.00821045930000    2.87248162570000   -0.21328367820000
 H        -1.22646798430000    1.75684822980000    0.49926320720000
$end

$rem
 BASIS = 6-31G*
 GUI = 2
 METHOD = B3LYP
 PRINT_ORBITALS false
 MOLDEN_FORMAT false
$end