$molecule
0 1
 C        -1.77433300070000   -3.16181918210000    0.28458327720000
 C        -0.97903010870000   -2.21813720780000   -0.20091944000000
 C        -1.21252843240000   -0.78486135450000   -0.03702904340000
 C        -2.51144703220000   -0.27290116800000   -0.06723647380000
 N        -2.81180710650000    1.00515429590000    0.03895454090000
 C        -1.81757834930000    1.86749323710000    0.17205794720000
 C        -0.48620447110000    1.49108102220000    0.20794193340000
 C        -0.16019981220000    0.13861539320000    0.10789348320000
 C         1.21635688710000   -0.33435498020000    0.20771262820000
 C         2.31038811840000    0.35738043850000   -0.07094371980000
 F         2.38871460620000    1.59994952230000   -0.52604126750000
 F         3.53836319910000   -0.13720492130000    0.05378834020000
 H        -1.57241926250000   -4.20686332310000    0.12428179090000
 H        -2.64395688880000   -2.92702650380000    0.87501535460000
 H        -0.10107089490000   -2.49496808620000   -0.77029427610000
 H        -3.35245629630000   -0.93983857150000   -0.20311214890000
 H        -2.10513787250000    2.90654676980000    0.25734236830000
 H         0.28041156910000    2.23733950200000    0.33545658780000
 H         1.37241352760000   -1.34824618500000    0.54318518650000
$end

$rem
 BASIS = 6-31G*
 GUI = 2
 METHOD = B3LYP
 PRINT_ORBITALS false
 MOLDEN_FORMAT false
$end