$molecule
0 1
 C        -4.33549855890000   -0.75671367430000    0.35855418370000
 C        -3.52735846060000    0.14605471170000   -0.18264937800000
 C        -2.07138398440000    0.10586426590000   -0.11986592330000
 C        -1.37621565270000   -1.08943750680000   -0.07152879400000
 C         0.02247707860000   -1.13529494950000   -0.05252328080000
 C         0.73775468870000   -2.40277062460000    0.02595655910000
 C         0.23851150270000   -3.52219708130000    0.53690118650000
 C         0.68031668420000    0.10292443680000   -0.11904981920000
 C         2.16485906500000    0.24320348900000   -0.15889953060000
 O         2.94511174480000   -0.56466368560000   -0.60470467460000
 O         2.54791497910000    1.41263205020000    0.35891265880000
 C         3.94182658260000    1.67188647550000    0.33642685250000
 N         0.03153285570000    1.26152823850000   -0.15265203840000
 C        -1.29185936740000    1.29197712840000   -0.13571381420000
 N        -1.84557640010000    2.53355085120000   -0.07052078560000
 H        -5.40549848020000   -0.68235991980000    0.26902305560000
 H        -3.96114722210000   -1.59207201060000    0.92515010750000
 H        -3.95939024390000    0.98415629350000   -0.71725252170000
 H        -1.92998020370000   -2.01549371170000   -0.09601128180000
 H         1.75147197490000   -2.38756689240000   -0.34396496880000
 H        -0.75346021740000   -3.58320739500000    0.95385236810000
 H         0.82019401360000   -4.42713526850000    0.57096953450000
 H         4.07575891530000    2.65553617080000    0.77899470570000
 H         4.31574109880000    1.65752512620000   -0.68982905150000
 H         4.47964599060000    0.91536091800000    0.91290854670000
 H        -1.21071850380000    3.29833982220000   -0.22454595710000
 H        -2.81091031470000    2.66606276560000   -0.31275720050000
$end

$rem
 BASIS = 6-31G*
 GUI = 2
 METHOD = B3LYP
 PRINT_ORBITALS false
 MOLDEN_FORMAT false
$end