$molecule
0 1
 C         3.64659554120000   -0.35345613610000    0.20440865080000
 C         2.47433652920000   -0.74641978960000   -0.27548818660000
 C         1.21854015750000   -0.00737482320000   -0.17555171850000
 C         1.18720928640000    1.37207510640000   -0.00723123950000
 C        -0.01850146410000    2.06283460540000    0.07526476850000
 N        -0.03132977880000    3.44218085940000    0.15754105740000
 C        -1.21115275900000    1.34986185760000   -0.00867524610000
 C        -1.21649774860000   -0.02981366490000   -0.17741069350000
 C        -2.45856330850000   -0.79153673420000   -0.27996958540000
 C        -3.63654929370000   -0.42333121240000    0.20542035460000
 C         0.00739952990000   -0.70573812980000   -0.27142730730000
 O         0.02032168790000   -2.08370269620000   -0.44923908450000
 C         0.01725452920000   -2.80929251420000    0.75941243140000
 H         4.53063408970000   -0.95791226600000    0.09312951900000
 H         3.77308908960000    0.57602640670000    0.73415841450000
 H         2.39056606910000   -1.70444518440000   -0.77223457820000
 H         2.11368864890000    1.92504574690000    0.03307553130000
 H         0.81153045330000    3.87641750590000    0.49650374100000
 H        -0.88251247370000    3.86073210520000    0.49543216840000
 H        -2.14790459040000    1.88537592820000    0.03034325460000
 H        -2.35834900600000   -1.74434518660000   -0.78370643400000
 H        -3.77813425240000    0.49988003530000    0.74228279200000
 H        -4.50985446460000   -1.04280778250000    0.09201920340000
 H         0.90330734000000   -2.58000986080000    1.36344138800000
 H         0.02706443810000   -3.86323410160000    0.48529327440000
 H        -0.88033912740000   -2.59340853490000    1.35117299220000
$end

$rem
 BASIS = 6-31G*
 GUI = 2
 METHOD = B3LYP
 PRINT_ORBITALS false
 MOLDEN_FORMAT false
$end