$molecule
0 1
 C         2.85107662200000    2.34527856830000   -0.39432915720000
 C         2.59073976850000    1.04573816890000   -0.47149387560000
 C         1.30266341780000    0.44638893080000   -0.20352954200000
 C         0.05879549860000    1.05211192130000   -0.27321474320000
 N        -0.86754183270000    0.10771213910000   -0.03168817080000
 C        -2.32036739940000    0.20554452990000   -0.01707014370000
 C        -2.76285230870000    1.66152648280000   -0.13277146420000
 C        -2.85249342760000   -0.61118523100000   -1.19924443230000
 C        -2.81203698020000   -0.39505698820000    1.30280863180000
 N        -0.30960606460000   -1.07745786780000    0.18630291430000
 C         1.00493278040000   -0.91105975690000    0.10050298910000
 C         1.88621007580000   -2.03445616120000    0.33673061050000
 C         3.13915176830000   -1.95599748660000    0.76717354700000
 H         3.82450476530000    2.74176886590000   -0.62690106400000
 H         2.10582779670000    3.05934275710000   -0.08589335560000
 H         3.36920635350000    0.35505283660000   -0.76861211070000
 H        -0.19108603940000    2.06746734170000   -0.49830191070000
 H        -2.46397503750000    2.08858151480000   -1.08734791380000
 H        -2.34315057230000    2.25962977290000    0.67312727130000
 H        -3.84659181860000    1.71059045970000   -0.06480497850000
 H        -2.49866488650000   -0.19283222260000   -2.13938794610000
 H        -3.93896893760000   -0.60859727260000   -1.20200108540000
 H        -2.49898591040000   -1.63575771180000   -1.12051955590000
 H        -2.45470058460000    0.19537790800000    2.14369354500000
 H        -2.43041404340000   -1.40704417190000    1.40411465090000
 H        -3.89798857980000   -0.41709882480000    1.32562465010000
 H         1.42293281600000   -2.99894909610000    0.17384821310000
 H         3.61214635210000   -1.01602782450000    0.99458314910000
 H         3.73221574540000   -2.84045204780000    0.92802682470000
$end

$rem
 BASIS = 6-31G*
 GUI = 2
 METHOD = B3LYP
 PRINT_ORBITALS false
 MOLDEN_FORMAT false
$end