$molecule
0 1
 C        -3.30055715410000   -0.58272662070000    0.34931180670000
 C        -2.67826314880000    0.44884825520000   -0.20495591850000
 C        -1.24668233100000    0.73732422490000   -0.12229843280000
 C        -0.87004979070000    2.07701855390000   -0.01612487240000
 C         0.45520536250000    2.42359723900000    0.12170924110000
 C         1.43426894770000    1.44330906770000    0.13448563280000
 C         1.08649391980000    0.10517766140000    0.00686452480000
 O         2.00185727320000   -0.90557445310000   -0.03001878950000
 C         3.36917264740000   -0.58364854310000   -0.04946339050000
 C        -0.26760544720000   -0.26615732570000   -0.12303690880000
 C        -0.63823117040000   -1.66379603450000   -0.35361601390000
 C        -0.10813254400000   -2.72125005470000    0.24338094230000
 H        -4.36760712240000   -0.70563581800000    0.26587003600000
 H        -2.77484262370000   -1.32697060010000    0.92248512570000
 H        -3.25971956070000    1.20198967380000   -0.72438385290000
 H        -1.63282044680000    2.84180268480000   -0.02452049920000
 H         0.74087357890000    3.46087337900000    0.21564150930000
 H         2.46674065220000    1.73683077500000    0.23794116220000
 H         3.89094701100000   -1.53419307770000   -0.15335304970000
 H         3.68633532740000   -0.10085953730000    0.88133366800000
 H         3.62238943730000    0.06098142880000   -0.89769281520000
 H        -1.42849444200000   -1.80220794600000   -1.08284932020000
 H         0.65165024010000   -2.63164888160000    0.99904014160000
 H        -0.43019613680000   -3.72036265360000    0.00078402380000
$end

$rem
 BASIS = 6-31G*
 GUI = 2
 METHOD = B3LYP
 PRINT_ORBITALS false
 MOLDEN_FORMAT false
$end