$molecule
0 1
 C         3.75032194590000    0.43254561090000    0.00196644950000
 C         2.91710765610000   -0.60374298800000   -0.00157648310000
 C         1.46977054120000   -0.52189436900000   -0.00070172180000
 C         0.70268135650000   -1.67252655710000   -0.00043387220000
 F         1.31016610580000   -2.87330392700000   -0.00093670690000
 C        -0.70284189330000   -1.67245889550000    0.00052529590000
 F        -1.31044233060000   -2.87317810010000    0.00105932440000
 C        -1.46982009000000   -0.52175234130000    0.00068638160000
 C        -2.91716240860000   -0.60346377450000    0.00125196850000
 C        -3.75028446030000    0.43289800690000   -0.00203059030000
 C        -0.72213133340000    0.68626751470000    0.00024771410000
 N        -1.21274090850000    1.92419975940000    0.00044302230000
 S         0.00014323940000    2.97468151490000    0.00002918850000
 N         1.21292488130000    1.92408476830000   -0.00039247810000
 C         0.72219911210000    0.68619773570000   -0.00020304970000
 H         4.81636586400000    0.28387408760000    0.00109649420000
 H         3.38978240190000    1.44568906510000    0.00584058860000
 H         3.30754369680000   -1.61303363830000   -0.00512312400000
 H        -3.30769222980000   -1.61271475620000    0.00430058420000
 H        -3.38966188390000    1.44600860910000   -0.00537759960000
 H        -4.81634245050000    0.28433260300000   -0.00148646370000
$end

$rem
 BASIS = 6-31G*
 GUI = 2
 METHOD = B3LYP
 PRINT_ORBITALS false
 MOLDEN_FORMAT false
$end