$molecule
0 1
 C        -4.75018025430000   -1.12374764870000    0.04450953330000
 C        -3.50267247790000   -1.40031406680000   -0.31698808430000
 C        -2.34466584770000   -0.52714101350000   -0.17479720400000
 C        -2.43679394900000    0.79406968770000    0.27416247480000
 C        -1.31249876340000    1.58275174490000    0.37220216910000
 C        -0.05484026470000    1.07086297660000    0.04534967320000
 C         1.05717662730000    1.94206261140000    0.07206234070000
 N         1.93169231650000    2.68330415930000    0.05938125520000
 C         0.06643855640000   -0.26132484920000   -0.38123920150000
 C         1.36021526360000   -0.85974616380000   -0.71369594490000
 C         2.46299263600000   -0.73808274080000    0.00665299780000
 F         2.59007710870000   -0.10221854750000    1.15986472140000
 F         3.61634285870000   -1.31213657670000   -0.31341426000000
 C        -1.08494694480000   -1.02682170900000   -0.50462332310000
 H        -5.54248601080000   -1.83797109780000   -0.09827615730000
 H        -5.03587238790000   -0.18997325520000    0.49728741560000
 H        -3.28569153360000   -2.36593884760000   -0.75673979600000
 H        -3.39663172590000    1.21187666480000    0.53178235950000
 H        -1.39018522480000    2.61009197000000    0.69640477230000
 H         1.41415735940000   -1.48689696810000   -1.59079966550000
 H        -0.99470363680000   -2.04730631280000   -0.84930333350000
$end

$rem
 BASIS = 6-31G*
 GUI = 2
 METHOD = B3LYP
 PRINT_ORBITALS false
 MOLDEN_FORMAT false
$end