$molecule
0 1
 C        -4.78971393420000    1.61153259230000    0.73863581490000
 C        -3.55953069890000    1.90567891590000    0.33547569340000
 C        -2.49572247200000    0.95673664250000    0.03639925270000
 C        -2.61203978300000   -0.42261561590000    0.20324494890000
 C        -1.58708128110000   -1.30918962450000   -0.09018694690000
 C        -1.72850732830000   -2.75083577010000    0.08734675190000
 C        -2.63224496320000   -3.36059073460000    0.84405987650000
 C        -0.36921417820000   -0.80012612680000   -0.59452264940000
 O         0.59794742780000   -1.70952018740000   -0.87717268720000
 C         1.83431193370000   -1.25933206120000   -1.38883790600000
 C         2.64855437820000   -0.44637315420000   -0.41052602670000
 C         3.55980085140000    0.49424444600000   -0.87305144150000
 C         4.31646436470000    1.23058611430000    0.02053791830000
 C         4.16368555940000    1.03832411100000    1.38337075030000
 C         3.25658357470000    0.10223848870000    1.84888892800000
 C         2.50497659790000   -0.64091810300000    0.95623252350000
 C        -0.22234154240000    0.56975154010000   -0.76477926300000
 C        -1.27008821870000    1.41135756050000   -0.44845177870000
 F        -1.07447068900000    2.73678810150000   -0.63415202950000
 H        -5.51022693880000    2.38657050940000    0.93410394330000
 H        -5.13207334130000    0.60186778410000    0.88696956680000
 H        -3.28517862680000    2.94372813300000    0.19936497840000
 H        -3.54441996640000   -0.82146214030000    0.56603187470000
 H        -0.99572306390000   -3.33975194730000   -0.44669381530000
 H        -3.36236404000000   -2.82492755780000    1.42674497800000
 H        -2.66581960060000   -4.43386979640000    0.91787820640000
 H         1.68371353980000   -0.69774733890000   -2.32118767120000
 H         2.37331697380000   -2.18270877340000   -1.63230343800000
 H         3.67511126490000    0.65008486960000   -1.93674261740000
 H         5.02208002700000    1.96029370570000   -0.34804695980000
 H         4.74983333710000    1.61850404010000    2.08028483000000
 H         3.13330989930000   -0.05183980360000    2.91058407040000
 H         1.79714808760000   -1.37271730610000    1.31745296120000
 H         0.69261769740000    1.00939322780000   -1.12617316870000
$end

$rem
 BASIS = 6-31G*
 GUI = 2
 METHOD = B3LYP
 PRINT_ORBITALS false
 MOLDEN_FORMAT false
$end