$molecule
0 1
 C         3.82491416360000    2.67354127150000   -0.27964360000000
 C         3.58749590720000    1.37416307750000   -0.12834790890000
 C         2.27612663180000    0.78262472970000   -0.06426995030000
 C         1.01249993980000    1.31085023420000   -0.12564928160000
 C         0.10502274030000    0.22924458510000    0.00393133060000
 C        -1.34179307980000    0.48195761050000    0.00346129640000
 O        -1.82445055240000    1.50994239380000   -0.40786066160000
 O        -2.06796442450000   -0.50596563700000    0.54530365780000
 C        -3.48115266480000   -0.30881626970000    0.59801366400000
 C        -4.14704381580000   -0.66879423370000   -0.72286646530000
 C         0.88744012170000   -0.91632111170000    0.12537152410000
 C         0.67313535740000   -2.33753619290000    0.22863511000000
 C        -0.47554761420000   -3.00405308180000    0.16800284450000
 O         2.18833520640000   -0.55930376840000    0.08424251030000
 H         4.82829395520000    3.05805649080000   -0.32130999700000
 H         3.02674620210000    3.38953753310000   -0.36690785040000
 H         4.40168074020000    0.66715946800000   -0.04309629170000
 H         0.73143291590000    2.33667293190000   -0.24012794290000
 H        -3.68324189970000    0.73802439190000    0.84732161690000
 H        -3.82628014100000   -0.95809430430000    1.40558904610000
 H        -3.78782029230000   -0.00949879200000   -1.50922943270000
 H        -5.22312928800000   -0.55273001790000   -0.63080631610000
 H        -3.92319610600000   -1.69803747560000   -0.99443161250000
 H         1.60487312330000   -2.87862142080000    0.34380497510000
 H        -1.41949721020000   -2.50770577150000    0.05238263960000
 H        -0.48961042680000   -4.07768286840000    0.24203700600000
$end

$rem
 BASIS = 6-31G*
 GUI = 2
 METHOD = B3LYP
 PRINT_ORBITALS false
 MOLDEN_FORMAT false
$end