$molecule
0 1
 C        -4.35866309220000   -0.74812571360000    0.27584053080000
 C        -3.52026942100000    0.15890979400000   -0.20927578820000
 C        -2.06804835700000    0.10682958060000   -0.07861226220000
 C        -1.37580624540000   -1.08878063030000   -0.01883132470000
 C         0.02003199670000   -1.13265534660000    0.07899736500000
 C         0.73586594440000   -2.40182506690000    0.12691207140000
 C         0.27895417780000   -3.54943490310000   -0.36027708900000
 C         0.67602929820000    0.10766937260000    0.10217665170000
 C         2.15904952860000    0.25030520650000    0.17741196780000
 O         2.92435084680000   -0.52975641390000    0.69316443420000
 O         2.55909679660000    1.38700878440000   -0.39711435670000
 C         3.95206384840000    1.64770582610000   -0.34854538460000
 N         0.02754532910000    1.26669090120000    0.05540445580000
 C        -1.29256622200000    1.29325610290000   -0.02224192590000
 N        -1.85674270610000    2.53551963290000   -0.07893619020000
 H        -5.42289939350000   -0.66383791180000    0.13801142390000
 H        -4.01685196870000   -1.59877768170000    0.84102221880000
 H        -3.91010452450000    1.01165240260000   -0.75134490170000
 H        -1.92862746320000   -2.01495107950000   -0.05290840620000
 H         1.71568286540000   -2.36322373110000    0.57790324310000
 H        -0.67368387310000   -3.63720923890000   -0.85672045830000
 H         0.86050725770000   -4.45276544530000   -0.29463284250000
 H         4.10451463600000    2.58721686910000   -0.87338400160000
 H         4.50801528370000    0.84183789800000   -0.83371507520000
 H         4.28877321310000    1.72738621170000    0.68757903940000
 H        -1.22086218380000    3.29215985500000    0.11313229010000
 H        -2.80671988570000    2.65191980390000    0.22693611330000
$end

$rem
 BASIS = 6-31G*
 GUI = 2
 METHOD = B3LYP
 PRINT_ORBITALS false
 MOLDEN_FORMAT false
$end