$molecule
0 1
 C         5.28635136490000   -0.93347531380000    0.01155441290000
 C         3.97380093820000   -1.12702452790000    0.01160019780000
 C         2.94100688630000   -0.09512621050000    0.00302130520000
 C         3.21142568860000    1.27672299390000   -0.00202973340000
 C         2.15082022170000    2.16526305870000   -0.00949023740000
 C         0.85793885040000    1.67341198650000   -0.01122460540000
 C         0.67614296260000    0.28928758180000   -0.00547572860000
 C        -0.67614213120000   -0.28934994690000   -0.00551435820000
 C        -0.85797366660000   -1.67347016880000   -0.01114862130000
 C        -2.15087218420000   -2.16528349290000   -0.00949423390000
 C        -3.21145724020000   -1.27671492500000   -0.00217905700000
 C        -2.94100019340000    0.09512722130000    0.00279177900000
 C        -3.97375202980000    1.12707202930000    0.01120345670000
 C        -5.28631021940000    0.93358565290000    0.01210641750000
 N        -1.69483444740000    0.56125208470000    0.00088255800000
 N         1.69485385690000   -0.56129110250000    0.00109425440000
 H         5.97329070680000   -1.76242179850000    0.01849503970000
 H         5.73352410770000    0.04618755550000    0.00454315880000
 H         3.57183247010000   -2.13123516310000    0.01841971410000
 H         4.22746099260000    1.63722738280000    0.00021652490000
 H         2.33208543350000    3.23107482060000   -0.01361464090000
 H        -0.00519176950000    2.31792370850000   -0.01661529620000
 H         0.00513529100000   -2.31801086300000   -0.01639201410000
 H        -2.33216942960000   -3.23108869920000   -0.01355499280000
 H        -4.22750146270000   -1.63719071260000   -0.00004939910000
 H        -3.57173193950000    2.13126792610000    0.01715657440000
 H        -5.73353413910000   -0.04605852020000    0.00607228000000
 H        -5.97322269550000    1.76255748230000    0.01884376070000
$end

$rem
 BASIS = 6-31G*
 GUI = 2
 METHOD = B3LYP
 PRINT_ORBITALS false
 MOLDEN_FORMAT false
$end