$molecule
0 1
 C        -5.05160079480000    0.85903162340000   -1.26103527880000
 C        -4.80823063360000    0.03381318830000    0.00108600780000
 C        -5.68276262080000   -1.21996789100000    0.00245178800000
 O        -3.45316053780000   -0.49010741030000    0.00232236970000
 C        -2.40704793510000    0.33140611310000    0.00114200120000
 N        -1.22868626670000   -0.40148288650000    0.00001510160000
 C        -1.12537304450000   -1.78561894360000   -0.00210253820000
 C         0.17251941600000   -2.15985072590000   -0.00437395420000
 C         0.05651184120000    0.12025911510000   -0.00083083350000
 C         0.96129293460000   -0.96419742430000   -0.00342754170000
 C         2.33052405960000   -0.73753382160000   -0.00461469100000
 C         2.79226028820000    0.57469211980000   -0.00317618960000
 C         4.20574099650000    0.91854807280000   -0.00431030700000
 C         5.25395978070000    0.10881679570000    0.00126978990000
 F         5.26648987570000   -1.22003644340000    0.00910745900000
 F         6.51316359080000    0.54839525820000    0.00022442070000
 C         1.86961889770000    1.63665295580000   -0.00088636170000
 C         0.50658678340000    1.43141875330000    0.00046632810000
 O        -2.43025458950000    1.53423190010000    0.00092852430000
 C        -5.05274287190000    0.86248702760000    1.26068358760000
 H        -4.82123887870000    0.26811795350000   -2.14514640060000
 H        -4.42691655830000    1.74796444160000   -1.25950034320000
 H        -6.09398008380000    1.16169191500000   -1.30203306270000
 H        -5.47650811780000   -1.82049122880000   -0.87966291440000
 H        -6.73162254610000   -0.93987133800000    0.00265194110000
 H        -5.47579088590000   -1.81897784040000    0.88543171820000
 H        -2.01514587280000   -2.38296564800000   -0.00181960410000
 H         0.54970381950000   -3.16298586550000   -0.00638738690000
 H         3.00897288680000   -1.57414754770000   -0.00702351540000
 H         4.44542938310000    1.97217398460000   -0.00957415270000
 H         2.24559938620000    2.64879580950000   -0.00008149030000
 H        -0.18608924320000    2.25623350050000    0.00231745510000
 H        -6.09463642600000    1.16719129400000    1.29828197210000
 H        -4.42644365400000    1.75028692640000    1.25841085530000
 H        -4.82570615550000    0.27336706170000    2.14684937980000
$end

$rem
 BASIS = 6-31G*
 GUI = 2
 METHOD = B3LYP
 PRINT_ORBITALS false
 MOLDEN_FORMAT false
$end