$molecule
0 1
 C           -4.56752714370000       -1.79419074850000       -0.01342379250000
 C           -3.26655357680000       -1.96197570430000       -0.21962949000000
 C           -2.22993754030000       -0.94208689740000       -0.13512486400000
 C           -2.48530097840000        0.38639107870000        0.20143092200000
 C           -1.47033069740000        1.32108288950000        0.24781658920000
 C           -0.15331233820000        0.96181470920000       -0.02343417930000
 O            0.88831976300000        1.82860890830000       -0.05740660750000
 C            0.66266007640000        3.18253653730000        0.24992009380000
 C            0.13298194230000       -0.38211563730000       -0.33159131220000
 C            1.49205726250000       -0.84219031220000       -0.60917835550000
 C            2.59763905060000       -0.46019299860000        0.00701160820000
 F            2.71734932010000        0.37371514350000        1.02818296290000
 F            3.80534612120000       -0.93587580480000       -0.30476174680000
 C           -0.90838443290000       -1.29559862010000       -0.40252567850000
 H           -5.25716646460000       -2.61589748600000       -0.10103177160000
 H           -5.00024222780000       -0.84412931900000        0.24845596440000
 H           -2.90242197920000       -2.94804106600000       -0.48167548330000
 H           -3.49179795990000        0.70426266000000        0.42265071120000
 H           -1.71432224820000        2.34193841310000        0.49615071070000
 H            1.63657295750000        3.66334037780000        0.17545088420000
 H            0.27816403400000        3.30433957180000        1.26708176760000
 H           -0.02730243080000        3.64743504010000       -0.46197453220000
 H            1.60947032200000       -1.59771816850000       -1.37213509540000
 H           -0.67724200980000       -2.31997295710000       -0.65861145070000
$end

$rem
 BASIS = 6-31G*
 GUI = 2
 METHOD = B3LYP
 PRINT_ORBITALS false
 MOLDEN_FORMAT false
$end