$molecule
0 1
 C        -4.54346795660000    0.06229236610000    0.48895358970000
 C        -3.75104170340000   -0.82160613290000   -0.10288263270000
 C        -2.29004736030000   -0.78204536530000   -0.11720191260000
 C        -1.60295087290000   -1.99440448340000   -0.03595656360000
 C        -0.22743232040000   -2.04322473360000    0.02352384150000
 C         0.48896053590000   -0.85461473680000   -0.01830965440000
 O         1.89019601800000   -1.00286839500000    0.04681388860000
 C         2.67379804160000    0.05057675870000    0.04020414030000
 F         2.60505209770000    0.79181964130000   -1.08222317970000
 F         2.45739857820000    0.91508075150000    1.04997799520000
 F         3.93709277590000   -0.35035612440000    0.14987593370000
 C        -0.15723694180000    0.35753287850000   -0.13497333710000
 C        -1.55209788080000    0.41060990410000   -0.18441758380000
 C        -2.20069528130000    1.70627259920000   -0.38005740780000
 C        -1.76917469740000    2.85238661580000    0.12854081460000
 H        -5.61445191900000   -0.04939004330000    0.47859004690000
 H        -4.15457211700000    0.91050326770000    1.02618712180000
 H        -4.18537211880000   -1.69231881080000   -0.57914964740000
 H        -2.16675794200000   -2.91483015200000   -0.00002779460000
 H         0.30533786400000   -2.97653978950000    0.09663354570000
 H         0.38903331200000    1.28351362200000   -0.21365177460000
 H        -3.09269004840000    1.68796439970000   -0.99311008240000
 H        -0.91208899880000    2.90548892500000    0.77910730630000
 H        -2.27500216070000    3.78184470460000   -0.06838697420000
$end

$rem
 BASIS = 6-31G*
 GUI = 2
 METHOD = B3LYP
 PRINT_ORBITALS false
 MOLDEN_FORMAT false
$end