$molecule
0 1
 C           -4.52256794850000       -1.31596419330000       -0.03730849020000
 C           -3.82320595870000       -0.18737016870000       -0.06994173230000
 C           -2.37475198840000       -0.05872639170000        0.00805531440000
 C           -1.51591706360000       -1.14565002060000        0.17471831320000
 C           -0.15296421170000       -0.95904776800000        0.23835644590000
 C            0.41249295400000        0.31415285220000        0.13901360400000
 C            1.85233317470000        0.51467036280000        0.22134443910000
 C            2.80420724430000       -0.37807771240000       -0.00362603510000
 F            2.67034862020000       -1.64525710290000       -0.37911812240000
 F            4.10416836410000       -0.09810545800000        0.10570101110000
 C           -0.43803883640000        1.42090854310000       -0.02275328540000
 C            0.10309429840000        2.81443949460000       -0.14448529480000
 C           -1.80404812480000        1.21135948270000       -0.08552801180000
 H           -5.59697926230000       -1.30951973910000       -0.10382553520000
 H           -4.06326192990000       -2.28505603620000        0.05390244470000
 H           -4.35273330200000        0.75289341810000       -0.16784021690000
 H           -1.91391787540000       -2.14413918770000        0.26006217710000
 H            0.48510586470000       -1.81613146640000        0.38218437500000
 H            2.20737674520000        1.49857410960000        0.48676417670000
 H            0.60314423000000        3.11694652790000        0.77558264600000
 H           -0.70320375850000        3.51760638050000       -0.33669885370000
 H            0.82032732260000        2.88281477570000       -0.96087177620000
 H           -2.45612583410000        2.06463793710000       -0.21488882270000
$end

$rem
 BASIS = 6-31G*
 GUI = 2
 METHOD = B3LYP
 PRINT_ORBITALS false
 MOLDEN_FORMAT false
$end