$molecule
0 1
 C        -0.33999470220000    2.85923055140000   -0.53653598590000
 C        -1.28617545390000    2.17451341370000    0.09202643940000
 C        -1.41815194450000    0.71796831410000    0.10892371470000
 C        -2.70051491040000    0.18060671460000    0.00596728690000
 C        -2.90584704710000   -1.18325448200000   -0.05392439080000
 C        -1.82083754880000   -2.04326271090000    0.00843810700000
 C        -0.54506027520000   -1.53284760790000    0.14435095930000
 C        -0.32083528890000   -0.15700599500000    0.19736632540000
 C         1.01975790700000    0.36879150880000    0.43020100070000
 C         2.16150104450000   -0.19223031120000    0.06760309590000
 F         2.32953841440000   -1.31048332210000   -0.63169449240000
 F         3.35779420690000    0.32924063030000    0.34242387390000
 H        -0.32733230870000    3.93601034210000   -0.53048868820000
 H         0.43717580540000    2.37627384400000   -1.10468189620000
 H        -2.08393461000000    2.70796049090000    0.59504131700000
 H        -3.54403200750000    0.85409898520000   -0.04802265420000
 H        -3.90740768520000   -1.57614561760000   -0.14519202040000
 H        -1.97040233190000   -3.11148422940000   -0.03433482560000
 H         0.28959686620000   -2.21066569570000    0.22931032610000
 H         1.09879217100000    1.30891150500000    0.95658622640000
$end

$rem
 BASIS = 6-31G*
 GUI = 2
 METHOD = B3LYP
 PRINT_ORBITALS false
 MOLDEN_FORMAT false
$end