$molecule
0 1
 C           -4.64510122020000        0.29061314000000        0.20761160390000
 C           -3.61949734450000       -0.15206954270000       -0.50559434400000
 C           -2.20030289120000        0.01180154490000       -0.18205952480000
 C           -1.37103979080000       -1.08872734460000       -0.38809313740000
 C           -0.01479573310000       -1.08215642860000       -0.10561716350000
 C            0.78267726490000       -2.33434765340000       -0.30212184910000
 C            0.54485166710000        0.10261561450000        0.38450580030000
 C            1.96307402000000        0.25900247700000        0.71816954270000
 C            2.99587633070000       -0.09526331040000       -0.02494553050000
 F            2.97114699220000       -0.65562547470000       -1.22861981060000
 F            4.26618987460000        0.09813269120000        0.33525741420000
 C           -0.27973518330000        1.20569781290000        0.59292077180000
 C           -1.63633755790000        1.19432537690000        0.31423576980000
 C           -2.42671584120000        2.45098846720000        0.52269763110000
 H           -5.66126435220000        0.09506862910000       -0.09153425320000
 H           -4.51790555490000        0.83396371400000        1.12733686290000
 H           -3.81015699330000       -0.74548113320000       -1.39246877150000
 H           -1.81419669780000       -1.99946984250000       -0.76733511630000
 H            0.14038200410000       -3.20718107150000       -0.21002279200000
 H            1.58331976820000       -2.40978646830000        0.43076826300000
 H            1.23086221450000       -2.35013630300000       -1.29504930040000
 H            2.19697350680000        0.76956592490000        1.64153634810000
 H            0.16577640080000        2.11599676880000        0.97009514350000
 H           -1.79143805060000        3.32169413330000        0.37313026340000
 H           -2.81491586780000        2.49497997020000        1.54034228160000
 H           -3.26668617110000        2.50287296070000       -0.16548083960000
$end

$rem
 BASIS = 6-31G*
 GUI = 2
 METHOD = B3LYP
 PRINT_ORBITALS false
 MOLDEN_FORMAT false
$end