$molecule
0 1
 C        -3.60325836510000    0.59959594530000    0.01672383330000
 C        -2.34050860840000    1.00591822810000   -0.00527989600000
 C        -1.15291901980000    0.15648457040000   -0.00273772950000
 C        -1.19465197320000   -1.24084838630000    0.00374025750000
 C         0.00001258130000   -1.93827808550000    0.00565692930000
 C         1.19465959520000   -1.24082178010000    0.00165610600000
 C         1.15289433220000    0.15650735100000   -0.00511947770000
 C         2.34044478960000    1.00598347490000   -0.01020298020000
 C         3.60334366200000    0.59962932500000    0.00169219320000
 N        -0.00002629300000    0.81861953310000   -0.00791999620000
 H        -4.41713574570000    1.30438397090000    0.01383521890000
 H        -3.88342035040000   -0.44012214470000    0.03937682680000
 H        -2.10694784010000    2.06180509790000   -0.02520257400000
 H        -2.13556724860000   -1.76684426930000    0.00609278090000
 H         0.00002932480000   -3.01954934500000    0.01007846020000
 H         2.13557249310000   -1.76679590400000    0.00276880040000
 H         2.10676049940000    2.06196644060000   -0.02377286450000
 H         3.88375526720000   -0.44017978180000    0.01666086830000
 H         4.41711647900000    1.30452057140000   -0.00281523550000
$end

$rem
 BASIS = 6-31G*
 GUI = 2
 METHOD = B3LYP
 PRINT_ORBITALS false
 MOLDEN_FORMAT false
$end