$molecule
0 1
 C        -3.93523834590000    2.84150029230000    0.41776927790000
 C        -3.74042616050000    1.53479192530000    0.55469045240000
 C        -2.57112470250000    0.75796558510000    0.16475061990000
 C        -2.60231070250000   -0.62839078240000    0.33105327490000
 C        -1.55281531470000   -1.46944572250000   -0.00565615740000
 C        -1.61130919650000   -2.91442488200000    0.18522723800000
 C        -2.70482987530000   -3.63606111500000    0.39810875620000
 C        -0.37618954800000   -0.89624437010000   -0.53636129720000
 O         0.62706266430000   -1.75160531810000   -0.85918351260000
 C         1.82718763120000   -1.23216041490000   -1.39119665770000
 C         2.61636800720000   -0.38248835260000   -0.42357794510000
 C         2.52136503330000   -0.60118870950000    0.94378432400000
 C         3.24962262280000    0.17584323020000    1.82681991710000
 C         4.08527721460000    1.17115924260000    1.35069202150000
 C         4.18980712160000    1.38842609110000   -0.01293128190000
 C         3.45604405620000    0.61768480470000   -0.89652420540000
 C        -0.31233162340000    0.47911626720000   -0.70875682160000
 C        -1.38938595270000    1.27399555250000   -0.36517651350000
 F        -1.23289388110000    2.60146978870000   -0.56265751480000
 H        -4.85449767580000    3.29596777150000    0.74734952810000
 H        -3.21082026600000    3.50528834550000   -0.01714050370000
 H        -4.52570277460000    0.93508516540000    1.00005045850000
 H        -3.49313169110000   -1.06415656560000    0.75649248640000
 H        -0.65258740960000   -3.41005059520000    0.12018771640000
 H        -3.69078316170000   -3.20562403740000    0.43973218010000
 H        -2.65157333500000   -4.70304350620000    0.52922797150000
 H         1.62758922440000   -0.67400341980000   -2.31622824920000
 H         2.40945411790000   -2.12385749160000   -1.65250852640000
 H         1.86926759580000   -1.37874246250000    1.31401523300000
 H         3.16416571340000    0.00200991460000    2.88918442160000
 H         4.65310968350000    1.77796629240000    2.04002126070000
 H         4.83931875500000    2.16456546460000   -0.38979296330000
 H         3.53344135160000    0.79290610370000   -1.96063473480000
 H         0.56724706910000    0.96697280330000   -1.09567675620000
$end

$rem
 BASIS = 6-31G*
 GUI = 2
 METHOD = B3LYP
 PRINT_ORBITALS false
 MOLDEN_FORMAT false
$end