$molecule
0 1
 C        -2.90710547890000    2.33457871710000   -0.27000758930000
 C        -2.60915336230000    1.18899285900000    0.32852665880000
 C        -1.28859559740000    0.56273523170000    0.32258601400000
 C        -0.14444994850000    1.35769101240000    0.32634348440000
 C         1.13514354940000    0.83109846290000    0.33219319750000
 C         2.31605702760000    1.76045199660000    0.28582517230000
 C         2.95452507760000    1.77019205640000   -1.10405891520000
 C         1.28833039080000   -0.56241836420000    0.32271785450000
 C         2.60887801270000   -1.18869571110000    0.32902796820000
 C         2.90712932680000   -2.33405696450000   -0.26974422100000
 C         0.14420182160000   -1.35737861640000    0.32657418460000
 C        -1.13539992660000   -0.83078535290000    0.33235034730000
 C        -2.31617564230000   -1.76032476890000    0.28621720930000
 C        -2.95358372020000   -1.77180966990000   -1.10414569430000
 H        -3.89715969170000    2.75587735630000   -0.22448245300000
 H        -2.18233188510000    2.88659023490000   -0.84489494020000
 H        -3.38625821080000    0.65676842780000    0.86206784700000
 H        -0.26479487290000    2.43162553720000    0.34604109680000
 H         3.06393907920000    1.46343097880000    1.02475787060000
 H         1.98800321010000    2.77157168370000    0.53612756530000
 H         3.30229502770000    0.77468838050000   -1.37054564690000
 H         3.80023240340000    2.45401728440000   -1.12998277350000
 H         2.22782625520000    2.08871066980000   -1.84836448520000
 H         3.38569071370000   -0.65673353600000    0.86329145190000
 H         2.18266086040000   -2.88595418470000   -0.84515240700000
 H         3.89721753650000   -2.75527071720000   -0.22388742300000
 H         0.26459427950000   -2.43130337350000    0.34640560000000
 H        -3.06465060370000   -1.46260651080000    1.02424975650000
 H        -1.98811744240000   -2.77109025990000    0.53792025400000
 H        -3.30183309150000   -0.77677614860000   -1.37177436130000
 H        -3.79881750760000   -2.45624845470000   -1.13005628220000
 H        -2.22613092340000   -2.09052550250000   -1.84763942850000
$end

$rem
 BASIS = 6-31G*
 GUI = 2
 METHOD = B3LYP
 PRINT_ORBITALS false
 MOLDEN_FORMAT false
$end