$molecule
0 1
 C         2.35173356140000   -3.25034730870000    0.20002592600000
 C         1.09808564010000   -2.83795097480000    0.04919792450000
 C         0.60011362900000   -1.46981425160000   -0.00509568690000
 C        -0.77344917460000   -1.26016266720000    0.02577622180000
 C        -1.35606167990000    0.00522751290000    0.00472858000000
 C        -2.82402013330000    0.17320366610000    0.03432575480000
 O        -3.38339851060000    1.20754008600000    0.32558744910000
 O        -3.57279190170000   -0.89145757240000   -0.29841688340000
 C        -0.51844068670000    1.14842347950000   -0.01723543580000
 N        -1.03744025410000    2.38975480140000    0.02034347710000
 C         0.88447756400000    0.96525973470000   -0.10738596070000
 C         1.75998967570000    2.13627074270000   -0.24196171670000
 C         2.91292138560000    2.30483659330000    0.38790087330000
 C         1.39811842340000   -0.31941497560000   -0.09843745910000
 F         2.73216810070000   -0.45801913340000   -0.22296372050000
 H         2.57957101180000   -4.30238046940000    0.23198992800000
 H         3.18844384270000   -2.58375943460000    0.29748957820000
 H         0.31504872390000   -3.58403644350000   -0.02759332760000
 H        -1.39538788750000   -2.14187715630000    0.11773887240000
 H        -3.04213142130000   -1.64510628900000   -0.58721976810000
 H        -2.03243834670000    2.47326383420000    0.18324255990000
 H        -0.43408397810000    3.18409818550000    0.12559723530000
 H         1.40563820620000    2.89707716250000   -0.92837788300000
 H         3.29631630590000    1.58110805490000    1.08614493630000
 H         3.51725574840000    3.18103521260000    0.22693065150000
$end

$rem
 BASIS = 6-31G*
 GUI = 2
 METHOD = B3LYP
 PRINT_ORBITALS false
 MOLDEN_FORMAT false
$end