$molecule
0 1
 C        -0.00141876040000   -3.71586179360000    0.48890152740000
 C         0.14105146850000   -2.44684788060000    0.84830366160000
 C        -0.73099075800000   -1.35398408130000    0.42368623480000
 C        -2.06643225930000   -1.59286881300000    0.10040590500000
 C        -2.89768267930000   -0.57666308240000   -0.32773449390000
 C        -2.41477133450000    0.71612151660000   -0.43657262660000
 C        -1.09510613020000    0.95751459800000   -0.11041932180000
 F        -0.64300554960000    2.22615678360000   -0.17633480970000
 C        -0.22919999820000   -0.04506733850000    0.32105679050000
 C         1.16105144650000    0.28045038280000    0.65659735430000
 C         1.96538734170000    0.98587779110000   -0.11927891220000
 F         1.69731046200000    1.43733770680000   -1.33364324500000
 F         3.21658591010000    1.29804373820000    0.20466646310000
 H         0.67607485940000   -4.47622129770000    0.83701120370000
 H        -0.77956972270000   -4.04319770560000   -0.17950388270000
 H         0.96979324370000   -2.17242305760000    1.48626251280000
 H        -2.45772189980000   -2.59263974490000    0.20353462090000
 H        -3.92752404940000   -0.78621197890000   -0.57232715440000
 H        -3.03970270940000    1.53327294880000   -0.75877739150000
 H         1.55904415210000   -0.05374778480000    1.60229786340000
$end

$rem
 BASIS = 6-31G*
 GUI = 2
 METHOD = B3LYP
 PRINT_ORBITALS false
 MOLDEN_FORMAT false
$end