$molecule
0 1
 C         3.33140296330000    2.30057320400000    0.15223538300000
 C         2.77312921310000    1.10928777850000   -0.04750187240000
 C         1.35623154380000    0.85428566840000    0.03560952380000
 S         0.21979255060000    2.16056886140000    0.09936951780000
 C        -1.13067194850000    1.07391803570000    0.06285693290000
 C        -2.45817845100000    1.64190901480000    0.03598396230000
 C        -3.50895272840000    1.09735484570000   -0.56664201770000
 C        -0.72035040030000   -0.24011600550000    0.00151166850000
 C        -1.70001595840000   -1.36948280720000    0.16406759350000
 O        -2.57034519510000   -1.31249416860000    0.99109229160000
 O        -1.57260875170000   -2.41125704240000   -0.64723279280000
 C         0.69959518610000   -0.36475484380000   -0.01416601970000
 C         1.40745147140000   -1.65888462480000   -0.13201422370000
 O         1.05518216160000   -2.52215760550000   -0.90089986390000
 O         2.48349726040000   -1.83799229280000    0.63933533660000
 H         4.39305861290000    2.44429261330000    0.06389439090000
 H         2.74109839200000    3.16381266210000    0.41121563580000
 H         3.39445629710000    0.26469219460000   -0.31791592570000
 H        -2.54424828390000    2.61213666680000    0.50846989970000
 H        -3.45421594260000    0.15443825700000   -1.08161411470000
 H        -4.46783564790000    1.58431524810000   -0.55403451150000
 H        -0.69137021830000   -2.47742591420000   -1.07956691600000
 H         2.63842668410000   -1.10695075100000    1.25348107540000
$end

$rem
 BASIS = 6-31G*
 GUI = 2
 METHOD = B3LYP
 PRINT_ORBITALS false
 MOLDEN_FORMAT false
$end