$molecule
0 1
 C         3.81809822710000    1.16418241250000   -0.34565525970000
 C         3.21851806580000    0.04775607580000    0.05065509810000
 C         1.78554023870000   -0.21564565970000    0.07212486010000
 C         1.33541942540000   -1.49020075490000    0.41810419550000
 C        -0.01302657850000   -1.77441552730000    0.44465883770000
 C        -0.96217945220000   -0.80958554390000    0.11560590130000
 C        -2.38029688730000   -1.20438801010000    0.14815607910000
 C        -3.19310504370000   -1.19423897560000   -0.89508991500000
 C        -0.53017369090000    0.47942458220000   -0.21587173050000
 C        -1.50306882670000    1.60121388210000   -0.45891556850000
 C        -2.00742783490000    2.15811565540000    0.87357309130000
 C         0.82807694850000    0.75226616170000   -0.22669629190000
 H         4.89024364190000    1.26052865390000   -0.32702748670000
 H         3.27637520790000    2.02159022350000   -0.70654910230000
 H         3.82960701960000   -0.77957997820000    0.39227446090000
 H         2.05144577470000   -2.26065427900000    0.66757076800000
 H        -0.34815496090000   -2.76701043320000    0.71221278460000
 H        -2.73057168950000   -1.58195410680000    1.10243437260000
 H        -2.86448851130000   -0.86972676580000   -1.86907091550000
 H        -4.21542882290000   -1.52572471950000   -0.82287741310000
 H        -2.35505020570000    1.25477046050000   -1.04222033090000
 H        -1.00782912590000    2.39738081170000   -1.01821881770000
 H        -2.53648140260000    1.38538142940000    1.42683952340000
 H        -2.68688319950000    2.99070334360000    0.70573398870000
 H        -1.17367700300000    2.50550340860000    1.48014127040000
 H         1.14735402090000    1.75461306030000   -0.47064355180000
$end

$rem
 BASIS = 6-31G*
 GUI = 2
 METHOD = B3LYP
 PRINT_ORBITALS false
 MOLDEN_FORMAT false
$end