$molecule
0 1
 C        -3.08698580000000   -2.01598311940000   -0.84912888000000
 C        -1.95440787440000   -2.10182259240000   -0.16197830710000
 C        -0.98944067140000   -1.01243833580000   -0.01357856160000
 C         0.36796571790000   -1.32336772030000   -0.00353559470000
 C         1.35035484460000   -0.34373897600000    0.01769958610000
 C         2.76016615170000   -0.83270424620000    0.13827052540000
 O         3.17472776950000   -1.78440674850000   -0.46037097370000
 O         3.52836523080000   -0.19213508720000    1.03921560520000
 C         0.98873291940000    1.01267751630000   -0.02915688920000
 C         1.94982937780000    2.10351095440000   -0.19126902020000
 C         3.06374514650000    2.02499276740000   -0.90908156400000
 C        -0.36784616030000    1.32326612110000    0.02100830670000
 C        -1.34950831270000    0.34332266460000    0.05800648180000
 C        -2.75534696710000    0.83101749580000    0.22224779630000
 O        -3.18474464590000    1.79090093680000   -0.35246258710000
 O        -3.50009423620000    0.17889689190000    1.13446983250000
 H        -3.73923417580000   -2.86393606090000   -0.96545270950000
 H        -3.39729775290000   -1.10469216320000   -1.33397124960000
 H        -1.64713802680000   -3.04975454380000    0.26156561030000
 H         0.68085596050000   -2.35709237410000   -0.02268652370000
 H         3.09288593550000    0.58658238500000    1.41152564090000
 H         1.65417352390000    3.04688401760000    0.25036202190000
 H         3.36078586360000    1.11899418130000   -1.41177970330000
 H         3.71305470020000    2.87406583620000   -1.03339365500000
 H        -0.68107337530000    2.35706840140000    0.02171438980000
 H        -3.05576971330000   -0.60512964690000    1.48452850540000
$end

$rem
 BASIS = 6-31G*
 GUI = 2
 METHOD = B3LYP
 PRINT_ORBITALS false
 MOLDEN_FORMAT false
$end