$molecule
0 1
 C         3.76258164750000   -1.00108559660000    0.07533087140000
 C         2.61376831390000   -1.61228262440000   -0.20680550050000
 C         1.27368011690000   -1.09078425950000   -0.09069609510000
 S        -0.00478581210000   -2.26332540170000   -0.18864984910000
 C        -1.25395222020000   -1.06421071080000   -0.08296210640000
 C        -2.63615692410000   -1.47900260980000   -0.03080478950000
 C        -3.62134043150000   -0.80912155550000    0.55802384880000
 C        -0.69019369510000    0.18483619380000   -0.01141453790000
 N        -1.46061351050000    1.41053243020000    0.07080016930000
 O        -2.25659672580000    1.61882948970000   -0.80829639780000
 O        -1.25698376860000    2.10132235150000    1.04015615690000
 C         0.73209626680000    0.17880503990000    0.00211480630000
 N         1.43759929190000    1.43028767330000   -0.03079287110000
 O         2.47144883700000    1.53362443160000    0.58510229510000
 O         0.92305283300000    2.30189375680000   -0.69557722430000
 H         4.69565048640000   -1.51807470930000   -0.06832757230000
 H         3.81630006010000    0.00300542050000    0.45650013600000
 H         2.63082366570000   -2.64218694610000   -0.54359307720000
 H        -2.82965899580000   -2.44066769710000   -0.48693348100000
 H        -3.47606680950000    0.12539817700000    1.07120297610000
 H        -4.62552550980000   -1.19362649270000    0.55327312690000
$end

$rem
 BASIS = 6-31G*
 GUI = 2
 METHOD = B3LYP
 PRINT_ORBITALS false
 MOLDEN_FORMAT false
$end