$molecule
0 1
 C        -3.52268193130000   -2.59903412110000   -0.15607846760000
 C        -3.26823836180000   -1.30537816370000    0.01509168590000
 C        -1.95300431580000   -0.71908116460000   -0.00416380630000
 C        -0.70042387160000   -1.24774419600000   -0.18110132710000
 C         0.21879154080000   -0.17221681320000   -0.08784839620000
 C         1.66060095640000   -0.42429873920000   -0.19123652210000
 O         2.12252873380000   -1.43533170120000   -0.66246454810000
 O         2.42717479220000    0.54914573820000    0.32729483290000
 C         3.82699461120000    0.31444640090000    0.28855275410000
 C        -0.54680443310000    0.97003078290000    0.13061368090000
 C        -0.31336543160000    2.38599620190000    0.26275292620000
 C         0.82012150520000    3.05241920150000    0.06714422840000
 O        -1.84792096050000    0.61717474550000    0.18162560840000
 H        -4.52813907050000   -2.97959801650000   -0.13164996780000
 H        -2.73708644890000   -3.31411694950000   -0.32583201580000
 H        -4.07001806090000   -0.59928806930000    0.18405620630000
 H        -0.43366922260000   -2.26994742760000   -0.34938932930000
 H         4.29008814920000    1.15672277810000    0.79642790120000
 H         4.17349022980000    0.24986133390000   -0.74536402980000
 H         4.06906391440000   -0.62124585200000    0.79651332600000
 H        -1.21751338070000    2.92371552020000    0.52215814330000
 H         1.73524509110000    2.56159746430000   -0.20296265930000
 H         0.85245576250000    4.12212248250000    0.18062969870000
$end

$rem
 BASIS = 6-31G*
 GUI = 2
 METHOD = B3LYP
 PRINT_ORBITALS false
 MOLDEN_FORMAT false
$end