$molecule
0 1
 C        -4.40401472050000    1.50842512420000   -0.05018771830000
 C        -3.09727310710000    1.70647145640000    0.07079615990000
 C        -2.06285362700000    0.68107902200000    0.03313425000000
 C        -2.32912442690000   -0.69160600760000   -0.01889786870000
 N        -1.39040459790000   -1.61600340520000   -0.05799857210000
 C        -0.12332241370000   -1.25074722170000   -0.04568247700000
 C         0.28497286520000    0.08683260250000    0.01352514010000
 C         1.67209731270000    0.52022211810000    0.03527917740000
 C         2.76367565540000   -0.22987153990000    0.00522517430000
 F         2.84395041110000   -1.55131803820000   -0.05180159120000
 F         3.99295542070000    0.27827423030000    0.02963953470000
 C        -0.72032293130000    1.05246540270000    0.05368316180000
 H        -5.09815764060000    2.33020386820000   -0.01284122990000
 H        -4.83415268940000    0.53253752010000   -0.19439437270000
 H        -2.72468946500000    2.71533652900000    0.20341429570000
 H        -3.34236114590000   -1.06744833850000   -0.02438540360000
 H         0.58827287470000   -2.06189271460000   -0.08253181640000
 H         1.84391808700000    1.58637412190000    0.08156678200000
 H        -0.45518257160000    2.10061965660000    0.09847087630000
$end

$rem
 BASIS = 6-31G*
 GUI = 2
 METHOD = B3LYP
 PRINT_ORBITALS false
 MOLDEN_FORMAT false
$end