$molecule
0 1
 C        -3.56909823370000    0.50550923590000    0.00606750320000
 C        -2.33699691930000    0.99888476130000   -0.00121554180000
 C        -1.11439293000000    0.22060474950000   -0.00137815880000
 C        -0.99361790340000   -1.14826175410000   -0.00244772620000
 S         0.64903831520000   -1.62330703550000   -0.00229128950000
 C         1.09002189700000    0.08993620300000   -0.00076576720000
 C         2.47476679790000    0.47751963170000    0.00050310950000
 C         2.87280982610000    1.74637264610000    0.00458152630000
 N         0.07347869640000    0.87728388150000   -0.00064664650000
 H        -4.42991836370000    1.15102800760000    0.00573392150000
 H        -3.76670993320000   -0.55293310490000    0.01252690210000
 H        -2.16888753860000    2.06669404030000   -0.00703077140000
 H        -1.76773923440000   -1.88773973890000   -0.00370127050000
 H         3.18506948260000   -0.33788977740000   -0.00178647340000
 H         2.15357244450000    2.54659943690000    0.00686426870000
 H         3.91542743380000    2.01155189560000    0.00556783690000
$end

$rem
 BASIS = 6-31G*
 GUI = 2
 METHOD = B3LYP
 PRINT_ORBITALS false
 MOLDEN_FORMAT false
$end