$molecule
0 1
 C           -2.16715316790000       -2.09699692890000        0.88887592760000
 C           -1.26966097790000       -2.08576603480000       -0.08521822390000
 C           -0.05629682860000       -1.26508628990000       -0.10230921000000
 C            1.14338769370000       -1.87373932030000       -0.47730298950000
 C            2.34337380390000       -1.20461399470000       -0.42304306780000
 C            2.38716747890000        0.12129578810000        0.01491750260000
 O            3.61806317550000        0.69730803600000        0.05298833050000
 C            3.72599029550000        2.03438435380000        0.47753488490000
 C            1.20134183230000        0.75069622130000        0.36415621800000
 C           -0.01759559930000        0.07684509080000        0.29033194700000
 C           -1.22039269090000        0.86119360840000        0.59224271910000
 C           -2.31269024990000        0.89436153520000       -0.14907706980000
 F           -2.54023511260000        0.21247926330000       -1.26407404920000
 F           -3.37344733890000        1.65390506020000        0.12441116470000
 H           -3.01970177040000       -2.75344924540000        0.86274807640000
 H           -2.08180107410000       -1.45767847960000        1.75227754060000
 H           -1.36952803500000       -2.77235518280000       -0.91616731350000
 H            1.12442443900000       -2.90448988790000       -0.79941322900000
 H            3.26639685130000       -1.68348311100000       -0.70787140400000
 H            4.78704456560000        2.27361540970000        0.42907302500000
 H            3.37450573410000        2.15926206040000        1.50682088460000
 H            3.17309548020000        2.71163675860000       -0.18145607980000
 H            1.19401090030000        1.78360696220000        0.67617569830000
 H           -1.18892387470000        1.52809234600000        1.44109685360000
$end

$rem
 BASIS = 6-31G*
 GUI = 2
 METHOD = B3LYP
 PRINT_ORBITALS false
 MOLDEN_FORMAT false
$end