$molecule
0 1
 C        -4.30847246050000   -1.50503734650000    0.19512867270000
 C        -3.06575558560000   -1.95555395640000    0.05714782080000
 C        -1.90860904790000   -1.10173335280000   -0.00303508270000
 N        -0.67860045690000   -1.50275358610000   -0.13112347540000
 C         0.08355060600000   -0.37380868170000   -0.14156700230000
 C         1.54567480940000   -0.45990139770000   -0.27422293980000
 O         2.16266430260000   -1.48300821340000   -0.40669166360000
 O         2.11837967530000    0.75864384260000   -0.23992878300000
 C         3.54327188990000    0.79136453670000   -0.34408177300000
 C         4.20893807810000    0.51259012530000    0.99584076370000
 C        -0.75900301850000    0.72391843750000   -0.01290298270000
 C        -0.50915761790000    2.13815753530000    0.03244565800000
 C        -1.47327283420000    3.04765393800000    0.15649960750000
 O        -2.01926571300000    0.24585764400000    0.07359052100000
 H        -5.14835780710000   -2.17544747990000    0.23625121860000
 H        -4.51934325440000   -0.45146770440000    0.27092479730000
 H        -2.83477522680000   -3.00686829520000   -0.01986816750000
 H         3.77637837880000    1.79728017600000   -0.69995656400000
 H         3.86055591590000    0.04976588570000   -1.08437344030000
 H         3.85747775300000    1.21719533440000    1.74600660600000
 H         5.28604100040000    0.60883683030000    0.89363219870000
 H         3.97460320690000   -0.49772032280000    1.32144940700000
 H         0.53061682730000    2.41433174570000   -0.04308836740000
 H        -2.50939900070000    2.76305641600000    0.23102847780000
 H        -1.25251471910000    4.09981604180000    0.18642571240000
$end

$rem
 BASIS = 6-31G*
 GUI = 2
 METHOD = B3LYP
 PRINT_ORBITALS false
 MOLDEN_FORMAT false
$end