$molecule
0 1
 C         3.47100117260000    1.60940499960000   -0.33330608540000
 C         2.93288592390000    0.46630675820000    0.07427152690000
 C         1.50919182640000    0.15590106010000    0.06388749070000
 C         0.54075243460000    1.16120612810000    0.11762075610000
 C        -0.81367868720000    0.87227671920000    0.10841126070000
 C        -1.82491504890000    1.91686266390000    0.20436169530000
 C        -1.68428026670000    3.15484608060000   -0.25296095500000
 C        -1.15659707930000   -0.49921323900000    0.03434757280000
 N        -2.44864958080000   -0.92036840970000   -0.07565028350000
 N        -2.77845975640000   -2.28200866450000    0.07629185880000
 N        -0.24047231770000   -1.46456244910000    0.01156799890000
 C         1.04952830240000   -1.16787493190000    0.02816471900000
 C         1.97611974860000   -2.34479794260000   -0.00754937950000
 H         4.53400399730000    1.77559486380000   -0.29513757180000
 H         2.88036968130000    2.41672726020000   -0.73240634360000
 H         3.58256793820000   -0.31969613350000    0.43540356790000
 H         0.85387201560000    2.18965422400000    0.21485343350000
 H        -2.75151773690000    1.64185947870000    0.69545065180000
 H        -0.79775412600000    3.47471896720000   -0.77352812260000
 H        -2.46031386680000    3.89146563900000   -0.13609649520000
 H        -3.19082256360000   -0.29420070670000    0.20052905980000
 H        -2.06399548460000   -2.72065377650000    0.65943198590000
 H        -2.72056035250000   -2.73305596770000   -0.83745203420000
 H         1.39075645100000   -3.25607527760000   -0.09274111730000
 H         2.57057562390000   -2.39256856510000    0.90420942320000
 H         2.65409231700000   -2.27400002540000   -0.85607809710000
$end

$rem
 BASIS = 6-31G*
 GUI = 2
 METHOD = B3LYP
 PRINT_ORBITALS false
 MOLDEN_FORMAT false
$end