$molecule
0 1
 C        -2.30139919410000    3.99500474650000   -0.02032700700000
 C        -1.10692259600000    3.41821498880000    0.02658522450000
 C        -0.82958963560000    1.98574973760000    0.01671190170000
 C        -1.83956017000000    1.02310222530000    0.00322008840000
 C        -1.50611614210000   -0.31856131980000   -0.00657223840000
 Cl       -2.76902075830000   -1.50056438390000   -0.02252227840000
 C        -0.18932330930000   -0.74494103680000   -0.00346694600000
 C         0.83279965080000    0.20496073490000    0.01120534210000
 C         2.24456887780000   -0.14729776160000    0.01655487370000
 C         2.79365675010000   -1.35313518960000    0.00434767860000
 F         2.18380495510000   -2.52973230120000   -0.01589872820000
 F         4.10948644170000   -1.54955089990000    0.01091031480000
 C         0.49583540520000    1.55745706960000    0.02204790810000
 H        -2.40329904790000    5.06639510890000   -0.00943860460000
 H        -3.21989021750000    3.43673867850000   -0.07295527420000
 H        -0.22430091520000    4.04387518300000    0.07392529420000
 H        -2.87744709740000    1.31118984950000    0.00271368940000
 H         0.02508567920000   -1.79981486790000   -0.01142756070000
 H         2.94562907360000    0.67461914930000    0.03208831430000
 H         1.28522419310000    2.29516103730000    0.03351057630000
$end

$rem
 BASIS = 6-31G*
 GUI = 2
 METHOD = B3LYP
 PRINT_ORBITALS false
 MOLDEN_FORMAT false
$end