$molecule
0 1
 C         3.29883896890000   -2.37520232270000    0.03540080260000
 C         2.77971415050000   -1.15059581080000   -0.02619885950000
 C         1.37003191650000   -0.87812124040000    0.02815710320000
 S         0.19717842970000   -2.14868162510000    0.12200479220000
 C        -1.14892222100000   -1.04314592250000    0.07533257770000
 C        -2.47426352770000   -1.60827270890000    0.17567290640000
 C        -3.61425034190000   -1.03573345220000   -0.20214042860000
 C        -0.69084288290000    0.24958200020000   -0.00139253060000
 N        -1.52446657630000    1.43224794220000    0.12541018090000
 O        -2.36990098540000    1.62237971430000   -0.71014747970000
 O        -1.31880271160000    2.10222952290000    1.10709569940000
 C         0.72801945960000    0.34687340180000   -0.02597329000000
 N         1.37847174960000    1.60769041650000   -0.21113551970000
 O         2.53495541230000    1.71622003420000    0.12993673810000
 O         0.71494714150000    2.47844785450000   -0.73173858650000
 H         4.36130481690000   -2.53284107370000   -0.00591595680000
 H         2.67864754910000   -3.25202061250000    0.13483242420000
 H         3.41677568570000   -0.28073473620000   -0.10661414640000
 H        -2.48348276590000   -2.61715436670000    0.56907089720000
 H        -3.66211664740000   -0.05758519310000   -0.64818958810000
 H        -4.54797510310000   -1.55693628230000   -0.08224127440000
$end

$rem
 BASIS = 6-31G*
 GUI = 2
 METHOD = B3LYP
 PRINT_ORBITALS false
 MOLDEN_FORMAT false
$end