$molecule
0 1
 C        -4.16069346210000   -0.76022749210000   -0.29503822860000
 C        -2.84164309920000   -0.88043553280000   -0.37378535040000
 C        -1.87055431090000    0.16271621650000   -0.06040830690000
 C        -2.20547904950000    1.51134824600000    0.06080837640000
 C        -1.24914857210000    2.45639880480000    0.38011061290000
 C         0.06824724610000    2.08441030820000    0.56993923290000
 C         0.45740263350000    0.75334418680000    0.42485620580000
 C         1.86036201910000    0.38897936800000    0.61292728640000
 C         2.53351734750000   -0.50780523040000   -0.08976047230000
 F         2.10100975210000   -1.21384463230000   -1.11953711310000
 F         3.81636402330000   -0.78693377440000    0.12679574170000
 C        -0.52980506440000   -0.18166856430000    0.12476046440000
 F        -0.18812292990000   -1.48472090750000    0.06331352270000
 H        -4.80963249320000   -1.58200788860000   -0.54289757360000
 H        -4.64632690660000    0.14543043390000    0.02636521680000
 H        -2.41103620170000   -1.82618192200000   -0.67449794490000
 H        -3.22660682130000    1.81741696600000   -0.09990209930000
 H        -1.53168546890000    3.49324112670000    0.48054718580000
 H         0.81453618950000    2.82435539890000    0.81533201890000
 H         2.41085907520000    0.92086899080000    1.37398531790000
$end

$rem
 BASIS = 6-31G*
 GUI = 2
 METHOD = B3LYP
 PRINT_ORBITALS false
 MOLDEN_FORMAT false
$end