$molecule
0 1
 C        -6.34188106510000    2.06410678790000   -0.02628301180000
 C        -6.25948536290000    0.73586925200000   -0.01703552810000
 C        -5.03577958760000   -0.01379159800000   -0.00720756060000
 C        -4.90151201480000   -1.38171320290000    0.00037821200000
 C        -3.57336352490000   -1.81783209940000    0.00770682450000
 C        -2.66314592110000   -0.78400161780000    0.00605225240000
 C        -1.24148455630000   -0.86857142820000    0.00953838850000
 C        -0.45844645780000   -2.00224205060000    0.00668529810000
 C         0.91131794060000   -1.73172623070000    0.00801391330000
 C         1.20540170530000   -0.38731594840000    0.01254823140000
 C         2.48343925390000    0.23621458380000    0.01266732970000
 C         2.77429783680000    1.58040263610000    0.02669777040000
 C         4.14693908280000    1.84735545540000    0.01968053950000
 C         4.93009171200000    0.71848906750000   -0.00050283820000
 C         6.36384440330000    0.65991023960000   -0.01461484330000
 C         7.08398337060000   -0.45893913690000   -0.04025991690000
 S         3.94158812120000   -0.71447854260000   -0.00965263230000
 S        -0.25274387350000    0.56381914190000    0.01548192850000
 S        -3.47520225500000    0.75364254600000   -0.00451355930000
 H        -7.28947250730000    2.57241638590000   -0.03377642290000
 H        -5.45784695230000    2.68036309380000   -0.02670820460000
 H        -7.15779153970000    0.13107335650000   -0.01699314160000
 H        -5.74591841580000   -2.04860026770000    0.00034037150000
 H        -3.28636799450000   -2.85357591110000    0.01424670440000
 H        -0.86681323330000   -2.99629752760000    0.00280080280000
 H         1.67554647880000   -2.48889731320000    0.00564483580000
 H         2.00936840540000    2.33684164860000    0.04165212900000
 H         4.55997329040000    2.84074453470000    0.02861063200000
 H         6.85297519370000    1.62599762200000   -0.00368945520000
 H         6.61310375410000   -1.42816121020000   -0.05189846190000
 H         8.15909286520000   -0.43994143340000   -0.05052443260000
$end

$rem
 BASIS = 6-31G*
 GUI = 2
 METHOD = B3LYP
 PRINT_ORBITALS false
 MOLDEN_FORMAT false
$end