$molecule
0 1
 C        -4.63808370970000    0.91497727380000    1.25426838980000
 C        -3.76267206650000    1.28143808630000    0.05768186740000
 C        -3.23486558890000    2.70965168720000    0.19442682050000
 O        -2.55862564460000    0.46576569590000    0.04690375970000
 C        -2.63588801510000   -0.85363530120000   -0.05250133940000
 N        -1.37146242670000   -1.43411510090000   -0.06174776910000
 C        -1.20847937160000   -2.81094712330000   -0.13293408850000
 C         0.10261640640000   -3.13166849940000   -0.14037481420000
 C        -0.11166925760000   -0.85696706600000   -0.02367522520000
 C         0.83748875840000   -1.90465809810000   -0.07347558510000
 C         2.19459157580000   -1.61936518470000   -0.05660509160000
 C         2.61234679920000   -0.29351514080000    0.00756247670000
 C         4.04341319960000   -0.03490670710000    0.01652453810000
 C         4.67972320090000    1.12643512500000    0.04815202770000
 F         4.16195661120000    2.34979168940000    0.08155361030000
 F         6.00970798360000    1.22536728990000    0.04967983150000
 C         1.65230445320000    0.73113748340000    0.05898681850000
 C         0.29874101510000    0.46631426590000    0.04479765960000
 O        -3.63424277440000   -1.52156582500000   -0.12776692580000
 C        -4.51979393040000    1.10966326890000   -1.25756378890000
 H        -4.06439031610000    0.99128140460000    2.17562638120000
 H        -5.01139603410000   -0.10047512870000    1.15506231320000
 H        -5.48237209070000    1.59625940890000    1.30805095460000
 H        -2.66449549250000    2.81136403540000    1.11422351060000
 H        -4.06447004350000    3.40970626860000    0.21472888870000
 H        -2.58862490090000    2.95282549970000   -0.64515545920000
 H        -2.08108019200000   -3.43309862920000   -0.17164532390000
 H         0.52149389530000   -4.11676775950000   -0.18806351540000
 H         2.91671227390000   -2.42111700410000   -0.09573784470000
 H         4.68637916520000   -0.90318759890000   -0.00980281780000
 H         1.97231489390000    1.75814946520000    0.11159802500000
 H        -0.41408395940000    1.27179993390000    0.08577036190000
 H        -5.36315522950000    1.79362165340000   -1.28391957940000
 H        -4.88914248300000    0.09220569960000   -1.35226294550000
 H        -3.86380757150000    1.32637002940000   -2.09822963690000
$end

$rem
 BASIS = 6-31G*
 GUI = 2
 METHOD = B3LYP
 PRINT_ORBITALS false
 MOLDEN_FORMAT false
$end