$molecule
0 1
 C        -3.77402763900000    1.36646930630000    1.60515157850000
 C        -2.57419194670000    0.91813184280000    1.26098550750000
 C        -2.32492867000000   -0.19896599990000    0.35130553390000
 C        -3.23067642900000   -1.25314934060000    0.24318770900000
 C        -2.98270383920000   -2.32704826860000   -0.58931238590000
 C        -1.81361778670000   -2.37175445000000   -1.33144128830000
 C        -0.89946261700000   -1.33981868950000   -1.23060168070000
 C        -1.13888136240000   -0.25200840750000   -0.39699041740000
 C        -0.16507501080000    0.85654597860000   -0.36276770560000
 C        -0.57891013800000    2.12980665030000   -0.73902718960000
 C         0.31207802150000    3.18593527820000   -0.77344176820000
 C         1.63678142290000    2.97848681430000   -0.42466614490000
 C         2.06323555470000    1.72175854920000   -0.04150649100000
 C         1.17715348690000    0.64482865600000   -0.00649922060000
 C         1.59104541060000   -0.67837354310000    0.44464653350000
 C         2.81888863310000   -1.17167868860000    0.46503420960000
 F         3.94060092980000   -0.58825674970000    0.05504041630000
 F         3.10828664590000   -2.39539126750000    0.90742482110000
 H        -3.89252746880000    2.19147047850000    2.28643350290000
 H        -4.68241481440000    0.94282348490000    1.21036227980000
 H        -1.68976221000000    1.40360596990000    1.65439440630000
 H        -4.13089950090000   -1.23550414290000    0.83877306430000
 H        -3.69794789990000   -3.13345838730000   -0.65634684250000
 H        -1.61361445960000   -3.20842757020000   -1.98389918340000
 H         0.00951326880000   -1.36232459660000   -1.81498800610000
 H        -1.61202329120000    2.28142486750000   -1.01669352490000
 H        -0.02545214980000    4.16744589990000   -1.07078498550000
 H         2.33831254380000    3.79879985960000   -0.44547178130000
 H         3.09182898310000    1.57896803390000    0.24828041550000
 H         0.81484454010000   -1.34460819080000    0.79240959920000
$end

$rem
 BASIS = 6-31G*
 GUI = 2
 METHOD = B3LYP
 PRINT_ORBITALS false
 MOLDEN_FORMAT false
$end