$molecule
0 1
 C        -4.39257512890000   -0.09369893600000   -0.94747404280000
 C        -3.70882410050000   -0.57814875050000    0.07757278300000
 C        -2.24584217370000   -0.56893966100000    0.18827925940000
 C        -1.62223784880000   -1.75446449410000    0.57812692710000
 C        -0.24934049390000   -1.87393806590000    0.61220266480000
 C         0.52855799100000   -0.78413599730000    0.24810167090000
 O         1.92072454750000   -1.00457201990000    0.29484461760000
 C         2.76045830320000   -0.04576118900000   -0.02073301480000
 F         2.68103820490000    1.04741208680000    0.76170708620000
 F         4.00316165000000   -0.50460224350000    0.09684800570000
 F         2.63919417340000    0.41087635670000   -1.28198339320000
 C        -0.05737336100000    0.40972125420000   -0.11794808410000
 C        -1.44800157870000    0.53734517350000   -0.13163183640000
 C        -1.98346482790000    1.87130084920000   -0.42596675810000
 C        -2.93793263900000    2.47053486030000    0.26871337580000
 H        -5.46455088150000   -0.17476443370000   -1.00059618880000
 H        -3.90610262330000    0.40065849060000   -1.77113262070000
 H        -4.22491291530000   -1.10363945210000    0.87182491790000
 H        -2.23339025210000   -2.60532542110000    0.84046172460000
 H         0.23354942280000   -2.79090325770000    0.90584884160000
 H         0.53491802220000    1.27307409890000   -0.37895526250000
 H        -1.47800626200000    2.40365497620000   -1.22220679640000
 H        -3.43242607420000    1.98287438520000    1.09161767620000
 H        -3.25774874290000    3.47256010420000    0.04064168130000
$end

$rem
 BASIS = 6-31G*
 GUI = 2
 METHOD = B3LYP
 PRINT_ORBITALS false
 MOLDEN_FORMAT false
$end