$molecule
0 1
 C         0.78295985960000    3.65498192260000    0.54054202170000
 C         1.28254213710000    2.57747837560000   -0.05075539510000
 C         0.64999506650000    1.26228052100000   -0.02467244400000
 C        -0.73809238470000    1.15815879020000   -0.03406074510000
 C        -1.39338929390000   -0.06645108990000   -0.02926648600000
 C        -2.87747894370000   -0.08563400830000    0.01538640590000
 O        -3.55897166000000   -1.00785514380000    0.39084883560000
 O        -3.40571224400000    1.07483619030000   -0.40973999920000
 C        -4.82214507250000    1.15356381900000   -0.38161971780000
 C        -0.64969623300000   -1.26136241830000   -0.02503535880000
 C        -1.28172715400000   -2.57683531070000   -0.05159120310000
 C        -0.78376403990000   -3.65286998390000    0.54366107150000
 C         0.73833529950000   -1.15727875410000   -0.03375094290000
 C         1.39366543370000    0.06730567250000   -0.02871978650000
 C         2.87779819510000    0.08538190510000    0.01618469460000
 O         3.56022717620000    1.00587236620000    0.39409985970000
 O         3.40470851960000   -1.07467431230000   -0.41182741590000
 C         4.82095521130000   -1.15598564180000   -0.38320616530000
 H         1.28510080970000    4.60535754340000    0.49020520640000
 H        -0.12524680500000    3.62559287960000    1.11971165860000
 H         2.22815709240000    2.64130937790000   -0.56865449940000
 H        -1.32926957210000    2.05991810390000   -0.05419888790000
 H        -5.07811513600000    2.14897529980000   -0.73521161920000
 H        -5.19135209130000    0.99817860150000    0.63439092060000
 H        -5.25831935980000    0.39202673530000   -1.03162249930000
 H        -2.22503821200000   -2.64208085710000   -0.57349764230000
 H         0.12195714770000   -3.62145611520000    1.12662494510000
 H        -1.28481045910000   -4.60379531540000    0.49297050820000
 H         1.32937007670000   -2.05913777140000   -0.05351707900000
 H         5.07497511050000   -2.15321932390000   -0.73311174730000
 H         5.19036760640000   -0.99748977640000    0.63224159310000
 H         5.25872638980000   -0.39785272240000   -1.03611942840000
$end

$rem
 BASIS = 6-31G*
 GUI = 2
 METHOD = B3LYP
 PRINT_ORBITALS false
 MOLDEN_FORMAT false
$end