$molecule
0 1
 C        -3.52310603920000   -0.90558139260000    0.00338812640000
 C        -2.26809265470000   -0.95222423210000   -0.42382133920000
 C        -1.27550297580000    0.09359513090000   -0.17241739530000
 C        -1.64646190560000    1.43972999840000   -0.13257694110000
 N        -0.79823376760000    2.42539014850000    0.08066745240000
 C         0.47952044530000    2.14182527040000    0.22622190160000
 C         1.00708532630000    0.84771691720000    0.15234948430000
 C         2.43579208160000    0.59856029460000    0.30574778880000
 C         3.38274346920000    1.46592841850000   -0.02777883550000
 C         0.08927975470000   -0.19774513160000   -0.02486661340000
 C         0.56907741410000   -1.61593380430000   -0.07259558410000
 O         1.45322757300000   -2.00017893770000   -0.78276899660000
 O        -0.06107950720000   -2.46201638490000    0.76773642180000
 H        -4.22251275890000   -1.69177939400000   -0.22140975650000
 H        -3.89387279950000   -0.09003106430000    0.60187739170000
 H        -1.92449120090000   -1.80063160380000   -1.00288657990000
 H        -2.67584966420000    1.72962718600000   -0.29138720930000
 H         1.12486013140000    2.98608318060000    0.42405251380000
 H         2.71110706380000   -0.37381079190000    0.68962863670000
 H         3.15933452030000    2.42602215370000   -0.46178053110000
 H         4.42477758900000    1.23074421380000    0.10048354480000
 H        -0.77566712500000   -2.03681775800000    1.26138240960000
$end

$rem
 BASIS = 6-31G*
 GUI = 2
 METHOD = B3LYP
 PRINT_ORBITALS false
 MOLDEN_FORMAT false
$end