$molecule
0 1
 C        -1.39292608750000    1.23962750560000    2.13928519540000
 C        -2.24994734410000    0.54689996400000    1.40322132090000
 C        -1.90745910930000   -0.39365917240000    0.33616506780000
 C        -2.69870534250000   -1.53345907770000    0.19417547460000
 C        -2.40761616230000   -2.50112417840000   -0.74645948370000
 C        -1.31767067530000   -2.33732935820000   -1.58516602710000
 C        -0.53609038870000   -1.20323045890000   -1.47493867330000
 C        -0.81393318980000   -0.22563586920000   -0.52417744180000
 C         0.00874234700000    0.99920506380000   -0.52817568230000
 C        -0.61158041550000    2.22235941720000   -0.76984032330000
 C         0.12232241520000    3.38599270730000   -0.88772380690000
 C         1.50385270000000    3.34306843130000   -0.78309089620000
 C         2.13523914470000    2.13696299250000   -0.55552814830000
 C         1.40403939020000    0.95785925450000   -0.41088002030000
 C         2.15215833990000   -0.27284825850000   -0.14489721090000
 C         1.83066249750000   -1.23607446920000    0.70088979840000
 F         0.77534679360000   -1.29599668900000    1.50094196980000
 F         2.58518555450000   -2.31834033140000    0.89689186070000
 H        -1.73004547290000    1.88438348600000    2.93330260300000
 H        -0.32871301950000    1.17807303890000    1.99520305550000
 H        -3.30946844750000    0.60824526510000    1.62403417650000
 H        -3.54607534760000   -1.66402170690000    0.85236215710000
 H        -3.02936292740000   -3.38033305720000   -0.82855048450000
 H        -1.08249609310000   -3.08507965770000   -2.32792626190000
 H         0.29940290730000   -1.05739326590000   -2.14574920050000
 H        -1.68619897460000    2.24635289060000   -0.87452101350000
 H        -0.37919165990000    4.32378470510000   -1.07398310540000
 H         2.08636200450000    4.24641354380000   -0.88416826730000
 H         3.21186152050000    2.09899440260000   -0.47205431940000
 H         3.09921654450000   -0.38797826660000   -0.65260497420000
$end

$rem
 BASIS = 6-31G*
 GUI = 2
 METHOD = B3LYP
 PRINT_ORBITALS false
 MOLDEN_FORMAT false
$end