$molecule
0 1
 C         3.54869701730000    1.03170822570000    0.00172528020000
 C         2.86358003140000   -0.10856106000000   -0.00248789380000
 C         1.43099012200000   -0.20966309300000   -0.00141055390000
 C         0.68179715290000   -1.35888775200000   -0.00246748530000
 C        -0.71025192620000   -1.15417934090000   -0.00075836060000
 C        -1.67583250310000   -2.29354779630000    0.00015081610000
 C        -1.04010915960000    0.18636535910000    0.00129157120000
 C        -2.29881254870000    0.88208890680000    0.00345201330000
 C        -3.52637875280000    0.36568371450000   -0.00458590740000
 S         0.39415386310000    1.17970660910000    0.00216251930000
 H         4.62401393930000    1.04660734000000    0.00084840200000
 H         3.04776731570000    1.98581624510000    0.00570600760000
 H         3.38160042270000   -1.05965363750000   -0.00695392890000
 H         1.12861818800000   -2.33870989890000   -0.00427086920000
 H        -1.13416817560000   -3.23654137290000    0.00660101180000
 H        -2.30775829300000   -2.26372840330000   -0.88680834580000
 H        -2.31544494740000   -2.25561819630000    0.88121755480000
 H        -2.19265379880000    1.96068685990000    0.01202965600000
 H        -3.72647837760000   -0.68860943850000   -0.01458151220000
 H        -4.38756445750000    1.01164063550000   -0.00191192440000
$end

$rem
 BASIS = 6-31G*
 GUI = 2
 METHOD = B3LYP
 PRINT_ORBITALS false
 MOLDEN_FORMAT false
$end