$molecule
0 1
 C        -4.08448028390000    1.40955034550000   -0.08005690430000
 C        -3.69152027480000    0.14097821520000   -0.06550270230000
 C        -2.31651359710000   -0.33387484790000    0.00207086930000
 C        -2.06330735050000   -1.70865225010000    0.03747505560000
 C        -0.77788326510000   -2.20424357250000    0.10362028190000
 C         0.32548587470000   -1.34751664540000    0.13833531070000
 C         1.69481565120000   -1.84491478200000    0.22044700400000
 C         2.10876756920000   -2.99891149000000   -0.28897426420000
 C         0.06337752250000    0.02166503870000    0.10810840170000
 S         1.39766598160000    1.22424128970000    0.08383478120000
 N         2.21143991670000    0.91526401140000   -1.34296263510000
 O         0.82708441450000    2.52893700530000   -0.05111744770000
 O         2.32016835080000    0.97328555510000    1.14884291210000
 C        -1.21440536190000    0.52327631920000    0.03505371550000
 H        -5.12789104490000    1.66910302300000   -0.12991761420000
 H        -3.39290608460000    2.23306236800000   -0.04054684290000
 H        -4.43704684960000   -0.64394180190000   -0.10358174370000
 H        -2.89582087620000   -2.39768468020000    0.01840235980000
 H        -0.61683217910000   -3.27040494990000    0.15106208510000
 H         2.38515056120000   -1.18987497920000    0.73427169770000
 H         1.45166573980000   -3.65953922180000   -0.83112638460000
 H         3.13142250380000   -3.32020451200000   -0.19231452510000
 H         1.67315913550000    1.13978799160000   -2.16195798590000
 H         2.64404678240000    0.00781274130000   -1.38843560400000
 H        -1.32435165390000    1.59482608130000    0.00580275850000
$end

$rem
 BASIS = 6-31G*
 GUI = 2
 METHOD = B3LYP
 PRINT_ORBITALS false
 MOLDEN_FORMAT false
$end