$molecule
0 1
 C        -4.55748646990000    0.08636126310000    0.69906088100000
 C        -3.69778072180000   -0.82264215910000    0.25615304210000
 C        -2.28636287920000   -0.61030014750000   -0.04177740210000
 C        -1.47297560200000   -1.71437458780000   -0.30183174360000
 C        -0.13578838440000   -1.54486093260000   -0.59664527360000
 C         0.45055065370000   -0.28004787000000   -0.63258889490000
 C         1.90843582640000   -0.17122342130000   -0.96675950110000
 C         2.82740332280000   -0.32357896100000    0.24714658760000
 O         3.93603313800000    0.12524770530000    0.28369070670000
 O         2.32468634670000   -1.02553442300000    1.26972394400000
 C        -0.34960910590000    0.83866558980000   -0.36148562310000
 C         0.14830545170000    2.21829969970000   -0.36281389720000
 C         1.27717874750000    2.64919834980000    0.18101522620000
 C        -1.70329366050000    0.65191022910000   -0.09617519280000
 H        -5.58492235130000   -0.16608124490000    0.89685960750000
 H        -4.27943628580000    1.10865041960000    0.89007533810000
 H        -4.03958061210000   -1.83925567300000    0.10369094200000
 H        -1.89556797590000   -2.70832832850000   -0.28107928500000
 H         0.46751694260000   -2.41320902570000   -0.82885376930000
 H         2.14477781680000    0.77949963170000   -1.44527971800000
 H         2.19278393220000   -0.97348424750000   -1.65521658500000
 H         1.40732538330000   -1.30003584490000    1.10052021240000
 H        -0.53071775230000    2.93437482850000   -0.81082664390000
 H         1.97017743350000    2.00244337050000    0.69064210700000
 H         1.54221749530000    3.69263063700000    0.15731056680000
 H        -2.31130764400000    1.52632281920000    0.07933239860000
$end

$rem
 BASIS = 6-31G*
 GUI = 2
 METHOD = B3LYP
 PRINT_ORBITALS false
 MOLDEN_FORMAT false
$end