$molecule
0 1
 C         3.49756595460000    1.32513016920000   -0.46080484990000
 C         2.36301736060000    1.52858799680000    0.19453590840000
 C         1.18710464400000    0.68109975440000    0.13282647090000
 C        -0.11218336100000    1.15161186200000    0.20004724530000
 N        -0.93992723830000    0.10608884640000    0.01190179760000
 C        -2.39452293630000    0.13239730100000   -0.01045821560000
 C        -2.85410959090000    1.04234317030000   -1.15449449450000
 C        -2.89857236380000   -1.29066168620000   -0.23679556240000
 C        -2.90002727980000    0.66225234900000    1.33532775920000
 N        -0.26199479260000   -1.01849559520000   -0.16058516210000
 C         1.02996585700000   -0.71687038760000   -0.08530356420000
 C         1.98776530130000   -1.80305180470000   -0.15252985890000
 C         3.19202340340000   -1.81436754590000    0.40287570290000
 H         4.31929746400000    2.01770464880000   -0.39196043390000
 H         3.64305257880000    0.46378581130000   -1.09011488740000
 H         2.23852681080000    2.42620409330000    0.79023402530000
 H        -0.46802221420000    2.15169301660000    0.34699400050000
 H        -2.45596370350000    0.68421679090000   -2.10116884850000
 H        -2.51478504940000    2.06404025860000   -1.00198676580000
 H        -3.93926964900000    1.04557194520000   -1.21284183810000
 H        -2.52064582580000   -1.67743289560000   -1.17851387010000
 H        -3.98492453970000   -1.29871964460000   -0.25674181380000
 H        -2.55029673510000   -1.94323652840000    0.55833575830000
 H        -2.56494112570000    1.68258050270000    1.50506440670000
 H        -2.53140871350000    0.03804642600000    2.14618576100000
 H        -3.98652663800000    0.65020506260000    1.35393452530000
 H         1.60622899800000   -2.68377366510000   -0.65298717680000
 H         3.58065960020000   -0.96879123220000    0.94418972960000
 H         3.83013903720000   -2.67940852670000    0.33863637780000
$end

$rem
 BASIS = 6-31G*
 GUI = 2
 METHOD = B3LYP
 PRINT_ORBITALS false
 MOLDEN_FORMAT false
$end