$molecule
0 1
 C         3.59238345790000   -1.04184484710000    0.45529681990000
 C         2.86415106210000   -0.08451254270000   -0.10417378200000
 C         1.40425026610000   -0.02805001050000   -0.09509129760000
 C         0.65318603770000   -1.20164671700000   -0.09720148590000
 C        -0.72998452510000   -1.20138064330000   -0.10074062460000
 C        -1.47833797960000   -2.50166895930000   -0.09273152570000
 C        -1.40430621780000    0.02787148720000   -0.09455862020000
 C        -2.86418908350000    0.08427277030000   -0.10306994030000
 C        -3.59243551920000    1.04287850200000    0.45422497850000
 C        -0.65319436460000    1.20146701460000   -0.09681858170000
 C         0.72995920400000    1.20119740230000   -0.10086156090000
 C         1.47848684390000    2.50136819340000   -0.09260873600000
 H         4.66827734120000   -1.03260939010000    0.41041046030000
 H         3.14733395480000   -1.86088170090000    0.99518633950000
 H         3.36518428040000    0.73501087970000   -0.60262389470000
 H         1.17462054610000   -2.14792494670000   -0.11715516110000
 H        -0.78857697400000   -3.33748432750000   -0.00354442810000
 H        -2.04514395890000   -2.62562498420000   -1.01588215430000
 H        -2.17871235390000   -2.53893249760000    0.74040850360000
 H        -3.36538488030000   -0.73649941800000   -0.59926219530000
 H        -3.14750683030000    1.86337750090000    0.99195044620000
 H        -4.66833734650000    1.03338478610000    0.40951783800000
 H        -1.17453989450000    2.14779223070000   -0.11633395440000
 H         0.78880365490000    3.33734879710000   -0.00443259990000
 H         2.04633792360000    2.62486916420000   -1.01516263880000
 H         2.17801179100000    2.53875008750000    0.74125418130000
$end

$rem
 BASIS = 6-31G*
 GUI = 2
 METHOD = B3LYP
 PRINT_ORBITALS false
 MOLDEN_FORMAT false
$end