$molecule
0 1
 C        -3.70422405270000    0.24619480720000    0.12865059990000
 C        -2.75925200080000   -0.66705418180000   -0.08520256360000
 C        -1.32964569700000   -0.44743290850000   -0.06235917090000
 C        -0.72995504240000    0.75539625220000   -0.05518633950000
 C         0.68927365000000    1.00710818480000   -0.03072369070000
 C         1.67789984830000    0.12002330470000    0.00866720840000
 F         1.58122282470000   -1.20405405000000    0.03331478900000
 F         2.96533777910000    0.46108201520000    0.02859691840000
 H        -4.74872615380000   -0.01034962380000    0.09362651070000
 H        -3.47648067970000    1.27324758610000    0.35674714270000
 H        -3.05805042010000   -1.68887413580000   -0.28203372750000
 H        -0.72822742490000   -1.34472461160000   -0.06670631310000
 H        -1.33609539480000    1.64928198260000   -0.07840246540000
 H         1.00625404470000    2.03956327600000   -0.04438226550000
$end

$rem
 BASIS = 6-31G*
 GUI = 2
 METHOD = B3LYP
 PRINT_ORBITALS false
 MOLDEN_FORMAT false
$end