$molecule
0 1
 C         4.02158404260000    1.55636832160000   -0.27592388730000
 C         3.72117864710000    0.26639444910000   -0.17779665500000
 C         2.38365864530000   -0.30217499080000   -0.08635496060000
 C         2.22207881670000   -1.69155774100000   -0.05697807860000
 C         0.97231369520000   -2.26494338540000    0.01606730190000
 C        -0.19481682830000   -1.49214183600000    0.09662603040000
 C        -1.47365113270000   -2.18529781540000    0.18920140580000
 C        -2.55155508740000   -1.77680911890000    0.84514642260000
 C        -0.01841585950000   -0.11210031390000    0.05727054040000
 S        -1.33269420310000    1.08271608520000    0.04163390180000
 O        -2.06943686470000    1.15804745960000    1.25592159650000
 O        -0.88895706900000    2.29012426090000   -0.56241645760000
 F        -2.33662235970000    0.38741308210000   -1.06410434880000
 C         1.22474385920000    0.47314124590000   -0.04053299780000
 H         5.04405265560000    1.88599941050000   -0.34041034700000
 H         3.27270882680000    2.32875094820000   -0.30056455700000
 H         4.52098072380000   -0.46354211470000   -0.16538767500000
 H         3.09539257670000   -2.32602756690000   -0.10493101710000
 H         0.87902888020000   -3.34103895390000    0.02548512070000
 H        -1.47779548720000   -3.15682265180000   -0.29149257520000
 H        -2.59236182900000   -0.84399184900000    1.37651051370000
 H        -3.43924898250000   -2.38609803210000    0.86982006010000
 H         1.26573793250000    1.54762598820000   -0.09780657680000
$end

$rem
 BASIS = 6-31G*
 GUI = 2
 METHOD = B3LYP
 PRINT_ORBITALS false
 MOLDEN_FORMAT false
$end