$molecule
0 1
 C        -3.68744209020000   -1.64408858520000   -0.03935657630000
 C        -2.96728227620000   -0.55050882020000    0.20442907310000
 C        -1.53985682110000   -0.44072217300000    0.07253691070000
 N        -0.72450732210000   -1.54851308940000   -0.00533116340000
 C         0.56666958410000   -1.16359615710000   -0.02437708690000
 N         1.63786258520000   -1.99122245360000   -0.08935678340000
 C         2.77349586250000   -1.38448396040000   -0.08958167860000
 N         2.93256738170000   -0.04021715830000   -0.02934698520000
 C         1.88117319530000    0.89987053910000    0.04121750050000
 O         2.14028919720000    2.08263593710000    0.10184940750000
 C         0.60866665850000    0.23590415050000    0.03779774520000
 C        -0.73656505480000    0.69794419800000    0.08796636950000
 C        -1.10504592860000    2.09592088090000    0.11993109170000
 C        -2.23049613230000    2.61693712600000   -0.35561891990000
 H        -4.75326761560000   -1.65354057480000    0.10372316060000
 H        -3.25395007120000   -2.55962284560000   -0.40667863460000
 H        -3.45736498950000    0.35039731920000    0.54526505980000
 H        -1.04122500670000   -2.50347588970000   -0.00527200160000
 H         3.67075392630000   -1.98491910090000   -0.13997067340000
 H         3.86300757940000    0.35922074870000   -0.03077150970000
 H        -0.33810756390000    2.74260171330000    0.52562917740000
 H        -2.98638842500000    2.01978644640000   -0.83704913770000
 H        -2.41982666480000    3.67530747620000   -0.30269453620000
$end

$rem
 BASIS = 6-31G*
 GUI = 2
 METHOD = B3LYP
 PRINT_ORBITALS false
 MOLDEN_FORMAT false
$end