$molecule
0 1
 C         3.97968001040000   -0.51460103810000    0.04521649570000
 C         2.96199326690000    0.33021037000000   -0.06511907900000
 C         1.54719317730000   -0.01622830510000   -0.03646431930000
 C         1.06986025890000   -1.32789190320000    0.00206766790000
 N        -0.21514326560000   -1.62299948500000    0.02941067830000
 C        -1.09172476080000   -0.64991932810000    0.02105118690000
 F        -2.36816263190000   -1.06179440870000    0.05089235940000
 C        -0.77991435610000    0.71622520330000   -0.02041551080000
 C        -1.73347017090000    1.81716810270000   -0.03499201600000
 C        -3.05761490070000    1.74091799030000    0.03072797020000
 C         0.58643918050000    0.99508806890000   -0.05179746910000
 H         4.99790771720000   -0.16709396420000    0.01559574280000
 H         3.84518619720000   -1.57469014310000    0.17215145270000
 H         3.16259955520000    1.38851310590000   -0.18105234550000
 H         1.73338147200000   -2.17962836560000    0.00562574390000
 H        -1.26450748830000    2.79196671140000   -0.10453445140000
 H        -3.59315842100000    0.81209634360000    0.10434025830000
 H        -3.65825362790000    2.63470492490000    0.01276438620000
 H         0.90556847780000    2.02846137320000   -0.08532544580000
$end

$rem
 BASIS = 6-31G*
 GUI = 2
 METHOD = B3LYP
 PRINT_ORBITALS false
 MOLDEN_FORMAT false
$end