$molecule
0 1
 C        -2.48291466810000    4.16199360550000    0.50375362120000
 C        -2.89488043370000    2.90087777350000    0.53525817390000
 C        -2.10108367390000    1.71653826470000    0.22397216930000
 C        -2.73925939780000    0.47976622500000    0.16423948520000
 C        -2.04294056400000   -0.68567612390000   -0.14461093000000
 C        -2.68165115250000   -1.99454146640000   -0.23297054550000
 C        -3.95358747600000   -2.27847765850000    0.01848342420000
 C        -0.67234990310000   -0.60208270350000   -0.38622056370000
 C        -0.01855703970000    0.61995260420000   -0.30325896640000
 O         1.31631601300000    0.76726749420000   -0.58359150940000
 C         2.20369724680000   -0.22605245970000   -0.26324752820000
 C         3.32009876320000   -0.36495135170000   -1.08232204030000
 C         4.28536680000000   -1.30580529360000   -0.77893354270000
 C         4.14732832500000   -2.11465756410000    0.33691738550000
 C         3.04237414600000   -1.96683495020000    1.15773862190000
 C         2.07194496490000   -1.02540653250000    0.86759782050000
 C        -0.72840029600000    1.77512675650000   -0.00722881450000
 H        -3.14755034570000    4.97349825840000    0.74606562060000
 H        -1.47945878840000    4.44105346260000    0.23256563120000
 H        -3.92349029130000    2.69255312720000    0.80460353680000
 H        -3.80110239090000    0.43404119240000    0.35009332880000
 H        -2.01723972570000   -2.79615494720000   -0.53280453630000
 H        -4.66929433790000   -1.53550753840000    0.32549091040000
 H        -4.33005048050000   -3.28284856380000   -0.07319824610000
 H        -0.11472902440000   -1.49133673870000   -0.64460414770000
 H         3.41282442220000    0.27398431620000   -1.94672157830000
 H         5.14787974200000   -1.41033860870000   -1.42024322710000
 H         4.89986673110000   -2.85286462130000    0.56903808820000
 H         2.93397955600000   -2.58484398800000    2.03687055700000
 H         1.21794943430000   -0.90130639450000    1.51786027070000
 H        -0.19050438700000    2.70756136170000    0.03954764090000
$end

$rem
 BASIS = 6-31G*
 GUI = 2
 METHOD = B3LYP
 PRINT_ORBITALS false
 MOLDEN_FORMAT false
$end