$molecule
0 1
 C        -3.67492838560000   -0.44138054510000    0.00239698060000
 C        -2.62819617890000    0.38084615720000   -0.00085810660000
 C        -1.24978055590000   -0.02892088460000   -0.00049030990000
 C        -0.69961189850000   -1.28836902140000    0.00135855600000
 C         0.69960869750000   -1.28836847860000    0.00153660720000
 C         1.24977874370000   -0.02891696300000   -0.00021189880000
 C         2.62819666510000    0.38084774050000   -0.00020791510000
 C         3.67493903180000   -0.44137720170000    0.00167666320000
 S        -0.00000372880000    1.17764999920000   -0.00234989690000
 H        -4.68188721270000   -0.06346075310000    0.00208616070000
 H        -3.56371982650000   -1.51171229710000    0.00564969340000
 H        -2.78622881220000    1.45172131870000   -0.00374568000000
 H        -1.28968421100000   -2.18705899400000    0.00243180370000
 H         1.28968479340000   -2.18705601270000    0.00286057730000
 H         2.78623286750000    1.45172246050000   -0.00171847460000
 H         3.56375866280000   -1.51168797230000    0.00334507760000
 H         4.68188942400000   -0.06343866300000    0.00186350540000
$end

$rem
 BASIS = 6-31G*
 GUI = 2
 METHOD = B3LYP
 PRINT_ORBITALS false
 MOLDEN_FORMAT false
$end