$molecule
0 1
 C         3.81749157430000   -0.33119334240000   -0.00327396300000
 C         2.82881871930000    0.55663911910000   -0.00621529130000
 C         1.39809986080000    0.29790694840000   -0.00170178520000
 C         0.53669708350000    1.39711817480000   -0.00622578180000
 C        -0.84014450410000    1.27534667130000   -0.00298771950000
 O        -1.64676790030000    2.37673269400000   -0.00772266520000
 C        -1.43093399410000    0.00025662790000    0.00418570920000
 C        -2.88040496540000   -0.11160702420000    0.00703951520000
 C        -3.59478368830000   -1.23159307140000   -0.01335643540000
 C        -0.57440566590000   -1.09756029530000    0.00970702420000
 C         0.80530432290000   -0.97739411270000    0.00710478450000
 O         1.58267309660000   -2.09838955490000    0.01355731460000
 H         4.84583713690000   -0.00936346150000   -0.00754791710000
 H         3.64213421730000   -1.39017969360000    0.00345981160000
 H         3.07885608930000    1.61185429820000   -0.01304551370000
 H         0.97145109860000    2.38935791690000   -0.01247261100000
 H        -1.10077026190000    3.17153048990000   -0.01270175270000
 H        -3.39152547520000    0.84098490180000    0.02562734930000
 H        -3.15235888350000   -2.21304727860000   -0.03606048760000
 H        -4.67067674690000   -1.20451256600000   -0.00928953590000
 H        -1.00170202330000   -2.09098002120000    0.01781918790000
 H         1.01279628240000   -2.87756311190000    0.01980368230000
$end

$rem
 BASIS = 6-31G*
 GUI = 2
 METHOD = B3LYP
 PRINT_ORBITALS false
 MOLDEN_FORMAT false
$end