$molecule
0 1
 C        -3.05433995240000   -1.49004847110000    0.51789685030000
 C        -2.63647423840000   -0.38605824320000   -0.08693160760000
 C        -1.28780931770000    0.17583284110000   -0.03082744660000
 C        -1.14341927240000    1.55309993850000   -0.20325369930000
 C         0.09197485520000    2.17553080820000   -0.14939089750000
 C         0.21715158180000    3.66189927650000   -0.30100979570000
 C         1.21811109210000    1.39634330350000    0.06856749760000
 C         1.12709318590000    0.01654925680000    0.22013677910000
 C         2.30817293070000   -0.81295739880000    0.44938245270000
 C         3.54501425560000   -0.51410148230000    0.07565833090000
 C        -0.13627208850000   -0.59219769210000    0.17639910970000
 O        -0.21959933520000   -1.96930278330000    0.31855979300000
 C        -0.06422068590000   -2.67001059750000   -0.89504425480000
 H        -4.07665193350000   -1.82001708200000    0.43241243520000
 H        -2.39786238870000   -2.09442804810000    1.11804105610000
 H        -3.34192715780000    0.20956859820000   -0.65579433930000
 H        -2.03098735250000    2.14817411460000   -0.36894542240000
 H        -0.68594775210000    4.08697629520000   -0.73161523940000
 H         1.06361220690000    3.91434455660000   -0.93655543650000
 H         0.38129723800000    4.12336005110000    0.67294519660000
 H         2.18591621900000    1.87048726820000    0.13475531900000
 H         2.10879975530000   -1.75102305120000    0.95146924030000
 H         3.78514415270000    0.39141036800000   -0.45619893950000
 H         4.36927425960000   -1.17604380530000    0.27971807790000
 H        -0.12407755770000   -3.72871652170000   -0.64797446050000
 H         0.90612970620000   -2.45584998500000   -1.35821585500000
 H        -0.86120868330000   -2.41510576050000   -1.60302942450000
$end

$rem
 BASIS = 6-31G*
 GUI = 2
 METHOD = B3LYP
 PRINT_ORBITALS false
 MOLDEN_FORMAT false
$end