$molecule
0 1
 C        -3.72705989870000   -2.70786074630000    0.10848580950000
 C        -3.60033081850000   -1.39329903010000   -0.02286026130000
 C        -2.35279270780000   -0.63682107980000   -0.02757502530000
 C        -2.40649720230000    0.75621110740000   -0.05289009240000
 C        -1.25644118360000    1.53835999220000   -0.04915948080000
 C        -1.38697942590000    2.99150684090000   -0.06321661780000
 C        -0.41811784400000    3.87404146730000    0.14676423500000
 C        -0.00949168740000    0.90632121810000   -0.03704716830000
 C         0.04352295600000   -0.47223071950000   -0.01908646300000
 O         1.24684492860000   -1.21193052950000   -0.01082024870000
 C         2.40884511410000   -0.60177832490000   -0.00067011870000
 F         2.61252692720000    0.19811298390000    1.06385255330000
 F         3.37558140540000   -1.51499492370000    0.02339316510000
 F         2.64389842450000    0.17415207560000   -1.07633146070000
 C        -1.10215944540000   -1.24936486750000   -0.01176579910000
 H        -4.69526219060000   -3.17789787930000    0.10401691520000
 H        -2.88475464410000   -3.36652355690000    0.22967810770000
 H        -4.49151672790000   -0.78747413020000   -0.12919320210000
 H        -3.37114879050000    1.24360243880000   -0.06705083940000
 H        -2.39229160320000    3.34851550590000   -0.24872833940000
 H         0.59804020510000    3.58981673210000    0.35897689940000
 H        -0.61360236660000    4.93216180200000    0.12253435260000
 H         0.88520921120000    1.50478463190000   -0.05470394570000
 H        -0.99397429410000   -2.32010973490000   -0.00365866360000
$end

$rem
 BASIS = 6-31G*
 GUI = 2
 METHOD = B3LYP
 PRINT_ORBITALS false
 MOLDEN_FORMAT false
$end