$molecule
0 1
 C        -4.25048417200000    1.39132823720000   -0.00056426800000
 C        -2.92084705040000    1.38013746760000   -0.00014793750000
 C        -2.06964600440000    0.20465082440000    0.00008819930000
 C        -2.51797503170000   -1.09850742700000    0.00033337920000
 C        -1.64484016290000   -2.19208097540000    0.00040785520000
 C        -0.26873584370000   -2.07212819820000    0.00022787940000
 C         0.55417562760000   -3.26613401920000    0.00011316450000
 C         1.88310984130000   -3.31306734560000   -0.00086738510000
 C         0.24811661030000   -0.74362608800000    0.00012590880000
 N         1.53099506530000   -0.40275298460000    0.00015446820000
 Se        1.67329393510000    1.34185770330000    0.00003115410000
 N        -0.05795765810000    1.56946142000000    0.00002044530000
 C        -0.65692974480000    0.38517914900000    0.00008686390000
 H        -4.79881930520000    2.31730104700000   -0.00089293860000
 H        -4.84323825020000    0.49236948320000   -0.00066620620000
 H        -2.37522074220000    2.31400250210000   -0.00005572850000
 H        -3.57891993670000   -1.29516217970000    0.00037267210000
 H        -2.07397023000000   -3.18448215470000    0.00054279910000
 H        -0.01195905530000   -4.19069827640000    0.00075237390000
 H         2.47921694560000   -2.41868783930000   -0.00156201960000
 H         2.40508700130000   -4.25517245910000   -0.00102259960000
$end

$rem
 BASIS = 6-31G*
 GUI = 2
 METHOD = B3LYP
 PRINT_ORBITALS false
 MOLDEN_FORMAT false
$end