$molecule
0 1
 C        -2.73585668160000    2.56053296030000   -0.42637729770000
 C        -2.52422363470000    1.34031324570000    0.04792254720000
 C        -1.27907126860000    0.58791860930000   -0.11002147550000
 C        -0.06009339130000    1.25785414960000   -0.13342576240000
 C         1.16013370580000    0.60912823610000   -0.24947512660000
 C         2.40831030580000    1.44868111800000   -0.27309073210000
 C         2.74668353580000    1.98812169260000    1.11795814470000
 C         1.16443048330000   -0.78473312820000   -0.36662030300000
 C         2.36883569160000   -1.60898166430000   -0.50616294120000
 C         3.48073675830000   -1.51565397890000    0.20825265660000
 C        -0.06014934980000   -1.45306715020000   -0.38433405020000
 C        -1.27442052660000   -0.80734829100000   -0.24316040070000
 C        -2.53924974870000   -1.62262019690000   -0.23820065780000
 C        -2.88939102560000   -2.07207818320000    1.18219085840000
 H        -3.67003010190000    3.07341848790000   -0.27134422570000
 H        -1.99450792740000    3.08897450150000   -1.00224569060000
 H        -3.31585507370000    0.84398838160000    0.59299323350000
 H        -0.06246581030000    2.33438385980000   -0.03852062070000
 H         2.24919656400000    2.29645913640000   -0.94523231240000
 H         3.24645880290000    0.86720477390000   -0.65779779170000
 H         1.94101711380000    2.61788597590000    1.48833528010000
 H         3.66003384910000    2.57824426730000    1.08438765820000
 H         2.88548259750000    1.17378139990000    1.82549821200000
 H         2.28185812690000   -2.40133492970000   -1.24151143240000
 H         3.60651931250000   -0.78767445080000    0.99031020380000
 H         4.30683634430000   -2.18934713870000    0.05110969020000
 H        -0.05460119740000   -2.52918873240000   -0.49927416860000
 H        -2.39766158120000   -2.50761612180000   -0.86275508060000
 H        -3.36523271480000   -1.04791107640000   -0.65957314980000
 H        -2.08322862990000   -2.67493397960000    1.59457692860000
 H        -3.80122138610000   -2.66550700950000    1.18036138440000
 H        -3.03546729050000   -1.21361707680000    1.83407554320000
$end

$rem
 BASIS = 6-31G*
 GUI = 2
 METHOD = B3LYP
 PRINT_ORBITALS false
 MOLDEN_FORMAT false
$end