$molecule
0 1
 C        -1.14560521390000    2.70454992450000   -0.48752431940000
 C        -0.28125763500000    2.03461514610000    0.26059351960000
 C         0.13865783750000    0.66030976590000    0.02055039470000
 C        -0.66261383780000   -0.37715739520000   -0.37489185060000
 C        -2.09738808100000   -0.47308879710000   -0.51149860100000
 C        -3.00503036570000    0.13482558210000    0.23891566330000
 F        -2.78578127940000    0.96930620240000    1.24531228360000
 F        -4.31601234690000   -0.01851524370000    0.07062713800000
 S         0.23804698220000   -1.84943041290000   -0.69618616660000
 C         1.72782724620000   -1.07160215000000   -0.25664528400000
 C         2.98993476720000   -1.64591105600000   -0.24982371660000
 C         4.06216973330000   -0.86406290340000    0.12585854600000
 C         3.87810916870000    0.47102566290000    0.48440186990000
 C         2.62519494810000    1.04155523200000    0.47367316030000
 C         1.51916042280000    0.27086661030000    0.10771533260000
 H        -1.39713252650000    3.72891625810000   -0.27602757190000
 H        -1.62825958470000    2.25681256910000   -1.34057179570000
 H         0.21135679200000    2.52485425540000    1.08994801590000
 H        -2.47230771190000   -1.16938750280000   -1.24773082220000
 H         3.12037076470000   -2.67854220720000   -0.53363489390000
 H         5.05426471840000   -1.28901576820000    0.14017214050000
 H         4.73334992670000    1.06397959840000    0.77199621520000
 H         2.49223910480000    2.07729443740000    0.74592694130000
$end

$rem
 BASIS = 6-31G*
 GUI = 2
 METHOD = B3LYP
 PRINT_ORBITALS false
 MOLDEN_FORMAT false
$end