$molecule
0 1
 C         1.03114392130000    3.75416895550000    0.59389680570000
 C         1.45773528300000    2.64048589270000    0.01193875770000
 C         0.74415786970000    1.36867718000000    0.06248474050000
 C        -0.64763524850000    1.34973837220000    0.09878129270000
 C        -1.37744414540000    0.16934117660000    0.12683721420000
 C        -2.85625874800000    0.32332474000000    0.10629928670000
 O        -3.43565764140000    1.29598839850000    0.52342631240000
 O        -3.48554507620000   -0.71084123790000   -0.46800328840000
 C        -4.89811278060000   -0.60414259410000   -0.55922790110000
 C        -0.71465669030000   -1.06917208350000    0.13523815260000
 C        -1.42203948380000   -2.34326575820000    0.24378532410000
 C        -1.03893610150000   -3.45979173500000   -0.35990309110000
 C         0.67567237330000   -1.05307715280000    0.08682931900000
 C         1.40765332120000    0.12766121990000    0.04104812250000
 C         2.89024216330000    0.04538354200000    0.02914526770000
 O         3.64986597090000    0.91432023330000    0.37995945990000
 O         3.31804792390000   -1.14633090660000   -0.42380683910000
 C         4.72538797200000   -1.32480586000000   -0.45235049710000
 H         1.59167681850000    4.67036749350000    0.52729809180000
 H         0.12669387230000    3.78867195960000    1.17828101720000
 H         2.40149359890000    2.63758258920000   -0.51323431150000
 H        -1.19544664610000    2.27982774340000    0.08325682410000
 H        -5.24064239540000   -1.51840309450000   -1.03678015660000
 H        -5.17455107850000    0.26794387390000   -1.15538730600000
 H        -5.33703849730000   -0.49979540520000    0.43540419400000
 H        -2.30959577330000   -2.34273753960000    0.86058843520000
 H        -0.18429415290000   -3.49109064890000   -1.01500264820000
 H        -1.58280114860000   -4.38076434630000   -0.23989767300000
 H         1.20895564690000   -1.99022655890000    0.11487740080000
 H         4.89664949120000   -2.33165837530000   -0.82430333580000
 H         5.14372987160000   -1.20756995270000    0.54959151800000
 H         5.18884111300000   -0.58842062680000   -1.11237508340000
$end

$rem
 BASIS = 6-31G*
 GUI = 2
 METHOD = B3LYP
 PRINT_ORBITALS false
 MOLDEN_FORMAT false
$end