$molecule
0 1
 C         7.10162403200000    0.50706545640000   -0.27758470730000
 C         6.14950813370000   -0.36725423490000    0.02915905580000
 C         4.71422898330000   -0.12793226380000    0.02907063760000
 C         4.14664737800000    1.12905218950000   -0.19205606600000
 C         2.78073459830000    1.29887315470000   -0.18141101370000
 C         1.91026232800000    0.22531017170000    0.04136664380000
 C         0.48301045140000    0.46773420600000    0.03327638930000
 C        -0.48266292180000   -0.46443090270000    0.06377692170000
 C        -1.90983126190000   -0.22170694180000    0.04942860950000
 C        -2.78023715610000   -1.30780628700000   -0.10123746950000
 C        -4.14604423810000   -1.13879946490000   -0.12739011270000
 C        -4.71383218330000    0.13062955490000    0.00446914200000
 C        -6.14881364870000    0.37048840960000   -0.01387694060000
 C        -7.10511563340000   -0.53246686390000   -0.20190277820000
 C        -3.84648258150000    1.21497216910000    0.16636214420000
 C        -2.48007748840000    1.04766257580000    0.18721158400000
 C         2.48044775950000   -1.03081209810000    0.27050074360000
 C         3.84700756570000   -1.19830372900000    0.26654271460000
 H         8.14232641090000    0.23286529850000   -0.25142202330000
 H         6.89043441340000    1.52149261670000   -0.56936503440000
 H         6.43596324930000   -1.37582510100000    0.30359625430000
 H         4.78262685490000    1.98326606880000   -0.36670138050000
 H         2.36650708920000    2.28285436160000   -0.35389661530000
 H         0.20851747600000    1.51301041770000   -0.02563797290000
 H        -0.20825075860000   -1.51128263220000    0.07898605270000
 H        -2.36600728490000   -2.30142589130000   -0.20469294230000
 H        -4.78150553990000   -2.00276069420000   -0.24722231240000
 H        -6.43200059300000    1.40510662810000    0.14095057750000
 H        -6.89882198600000   -1.57602198330000   -0.36666930930000
 H        -8.14504904200000   -0.25418224320000   -0.19953284440000
 H        -4.26144763100000    2.20741078660000    0.27825647170000
 H        -1.84729330390000    1.91135838110000    0.32335442110000
 H         1.84743040710000   -1.88297493780000    0.46552463980000
 H         4.26211194400000   -2.18000313610000    0.44980613910000
$end

$rem
 BASIS = 6-31G*
 GUI = 2
 METHOD = B3LYP
 PRINT_ORBITALS false
 MOLDEN_FORMAT false
$end