$molecule
0 1
 C         3.65124244880000    0.00733194090000    0.26063760260000
 C         2.52805100490000   -0.45519064760000   -0.27177179980000
 C         1.20550236900000    0.14368120840000   -0.08503910510000
 C         1.07009591580000    1.52425368130000    0.00203508400000
 C        -0.17413376660000    2.11340500500000    0.12707733230000
 C        -1.30286601120000    1.31908144070000    0.17002287210000
 C        -1.21250789680000   -0.06835536440000    0.09929295530000
 C        -2.42610995790000   -0.87957014100000    0.19660841330000
 C        -3.60699032300000   -0.54049396190000   -0.30216189960000
 C         0.05483085030000   -0.66752199910000   -0.02880402770000
 N         0.17506177280000   -2.03532090260000   -0.17043110080000
 H         4.60320789680000   -0.45820620410000    0.06896116770000
 H         3.66195539210000    0.86149986390000    0.91683807660000
 H         2.56486045070000   -1.32953220720000   -0.91093987390000
 H         1.95508681960000    2.13991818850000   -0.05564949570000
 H        -0.26274773350000    3.18758622240000    0.18937143030000
 H        -2.27612424540000    1.77133150510000    0.28757949700000
 H        -2.34045568810000   -1.81643715230000    0.73788491900000
 H        -3.74667511740000    0.36450947460000   -0.86870155200000
 H        -4.47593537380000   -1.16379532120000   -0.17616080390000
 H        -0.63257854070000   -2.58448906580000    0.07155933430000
 H         1.05351210870000   -2.43958194350000    0.10691410930000
$end

$rem
 BASIS = 6-31G*
 GUI = 2
 METHOD = B3LYP
 PRINT_ORBITALS false
 MOLDEN_FORMAT false
$end