$molecule
0 1
 C         3.98031912430000    0.14049756310000   -0.11793373880000
 C         2.81989559810000    0.76473857760000    0.04408660050000
 C         1.49422447300000    0.15937219520000    0.03229869750000
 C         1.27803924670000   -1.21262135910000   -0.10412525110000
 C        -0.00374783510000   -1.71948427170000   -0.08947992100000
 C        -1.12191118380000   -0.90079333440000    0.03445988350000
 C        -2.47906491840000   -1.53513721860000    0.07678420120000
 C        -0.92395835280000    0.48036076250000    0.15142992050000
 C        -2.01116033790000    1.45696891830000    0.27190322880000
 C        -3.13729146030000    1.46603306940000   -0.42609044280000
 C         0.37704429230000    0.97695077180000    0.17148199710000
 H         4.91296592210000    0.67786358500000   -0.09508573070000
 H         4.05419349730000   -0.92090849100000   -0.28128943460000
 H         2.82091801900000    1.83733854740000    0.19922118940000
 H         2.11345009880000   -1.88731969420000   -0.20706550580000
 H        -0.14981891100000   -2.78763608230000   -0.17492129220000
 H        -2.41407768570000   -2.52743131050000    0.51940013360000
 H        -2.87966302570000   -1.64864886600000   -0.93093739170000
 H        -3.17650796130000   -0.93357304940000    0.65466418390000
 H        -1.81438058010000    2.26445424670000    0.96812673570000
 H        -3.36055341440000    0.72190166480000   -1.17049239360000
 H        -3.87169571040000    2.24360664980000   -0.29697985340000
 H         0.51915325580000    2.04411722980000    0.28130332950000
$end

$rem
 BASIS = 6-31G*
 GUI = 2
 METHOD = B3LYP
 PRINT_ORBITALS false
 MOLDEN_FORMAT false
$end