$molecule
0 1
 C         3.53533887040000   -1.51898653360000    0.07155351700000
 C         3.13728544450000   -0.25207900960000    0.07655741450000
 C         1.76206877260000    0.22754178710000    0.06399281420000
 C         1.51738802690000    1.59729386990000   -0.04193272120000
 C         0.22911305060000    2.08612823580000   -0.05596210950000
 C        -0.87062953960000    1.23399295730000    0.03591460980000
 C        -2.22800107870000    1.77786963530000    0.04223318930000
 C        -2.61116773670000    2.85408857650000   -0.63166935590000
 C        -0.63366257970000   -0.14440181340000    0.14290214590000
 C        -1.80701149150000   -1.09904131460000    0.22780080140000
 C        -1.43779370430000   -2.47951174050000    0.04797346090000
 N        -1.16235308150000   -3.57976324880000   -0.09561119940000
 C         0.66211274170000   -0.62570595150000    0.15768196300000
 H         4.58098634700000   -1.77479491060000    0.07846468760000
 H         2.84901454790000   -2.34810648190000    0.05525664500000
 H         3.88420708690000    0.53293429560000    0.08122321090000
 H         2.35010428450000    2.28278232420000   -0.11050266090000
 H         0.06160449090000    3.15107136670000   -0.11604946930000
 H        -2.95344788600000    1.24938050300000    0.64819532760000
 H        -1.93703899350000    3.39818898780000   -1.27165380070000
 H        -3.62203363150000    3.22123256360000   -0.58269061590000
 H        -2.54733990200000   -0.84961985030000   -0.53991817150000
 H        -2.29049612880000   -1.00816323980000    1.20842017060000
 H         0.82141978710000   -1.68943632570000    0.24480099180000
$end

$rem
 BASIS = 6-31G*
 GUI = 2
 METHOD = B3LYP
 PRINT_ORBITALS false
 MOLDEN_FORMAT false
$end