$molecule
0 1
 C        -3.51496325970000    1.45769729800000   -0.57787264660000
 C        -2.53039472370000    1.47427777250000    0.30833244960000
 C        -1.29804342670000    0.68651136270000    0.20700745850000
 C        -0.11431138180000    1.33987113320000    0.45912792330000
 C         1.10103407180000    0.67642925510000    0.24501937730000
 N         2.33684226620000    1.14753757940000    0.41828896130000
 S         3.38300233200000   -0.00082331550000    0.00111627180000
 N         2.33639671260000   -1.14846708410000   -0.41731592910000
 C         1.10081518480000   -0.67628158690000   -0.24563832200000
 C        -0.11485641040000   -1.33888275630000   -0.46073233600000
 C        -1.29822460460000   -0.68478159910000   -0.20923061250000
 C        -2.53102074510000   -1.47218746860000   -0.31028073950000
 C        -3.51187586740000   -1.45940554540000    0.58003206560000
 H        -4.37066600550000    2.10372500770000   -0.48191899500000
 H        -3.50148833580000    0.80295259020000   -1.43273897160000
 H        -2.55901060640000    2.17682897830000    1.13222515850000
 H        -0.10488720390000    2.36848704920000    0.78523116870000
 H        -0.10596176190000   -2.36755514700000   -0.78668869470000
 H        -2.56279493640000   -2.17086139500000   -1.13732595060000
 H        -3.49445623820000   -0.80830589040000    1.43759622700000
 H        -4.36808977210000   -2.10486968460000    0.48506319060000
$end

$rem
 BASIS = 6-31G*
 GUI = 2
 METHOD = B3LYP
 PRINT_ORBITALS false
 MOLDEN_FORMAT false
$end