$molecule
0 1
 C           -3.80028785450000       -1.13641708540000       -0.62427732760000
 C           -2.49405084960000       -1.10497811340000       -0.84998607660000
 C           -1.56938417200000       -0.10319432820000       -0.32159384110000
 C           -1.98596588500000        1.19660825230000       -0.05114054540000
 C           -1.08196431620000        2.13359742980000        0.41530694420000
 Cl          -1.62135661690000        3.73890086180000        0.76222756210000
 C            0.24954305280000        1.81010836590000        0.59783480250000
 C            0.69359141070000        0.52100768470000        0.31404516710000
 C            2.10524998110000        0.19884651810000        0.51531810900000
 C            2.84881973810000       -0.55274280510000       -0.28005970920000
 F            2.51686810200000       -1.09420702230000       -1.43643370470000
 F            4.13009859960000       -0.82206144020000       -0.02666256530000
 C           -0.22137471510000       -0.44480594120000       -0.12423542410000
 O            0.21817982720000       -1.72460615520000       -0.34781748170000
 C           -0.17324551470000       -2.68140230480000        0.62931983800000
 C            0.25566355920000       -4.05293080450000        0.13845591210000
 H           -4.42626085480000       -1.89941903070000       -1.05365744030000
 H           -4.29261853770000       -0.41591820760000        0.00716148610000
 H           -2.02838165080000       -1.86586906270000       -1.46321740220000
 H           -3.01224496650000        1.47778704070000       -0.22376630160000
 H            0.94781541510000        2.55480672450000        0.94575831260000
 H            2.59448072690000        0.62141891260000        1.38006802260000
 H           -1.26009919510000       -2.64598120600000        0.78491947860000
 H            0.31806530040000       -2.44350547270000        1.58512736330000
 H           -0.24493636000000       -4.28709135250000       -0.79686461160000
 H            0.00291784740000       -4.80619862980000        0.87904384240000
 H            1.32809218960000       -4.06415101450000       -0.03415268960000
$end

$rem
 BASIS = 6-31G*
 GUI = 2
 METHOD = B3LYP
 PRINT_ORBITALS false
 MOLDEN_FORMAT false
$end