$molecule
0 1
 C         2.08046483430000   -3.29575930130000   -0.44368064220000
 C         2.26394719880000   -2.11853564270000    0.13961348470000
 C         1.32626871630000   -0.99654748340000    0.08550954540000
 C        -0.04445102440000   -1.23825660310000    0.05638693110000
 C        -0.97651423680000   -0.21285165150000    0.04359063080000
 C        -2.47839521200000   -0.45345238830000    0.01359975960000
 C        -2.83466818280000   -1.94065982360000   -0.05899709450000
 C        -3.10586249810000    0.12823613750000    1.28799794250000
 C        -3.07311927530000    0.23948204120000   -1.22048742780000
 C        -0.49160425270000    1.08867170910000    0.08334111520000
 C         0.86597693700000    1.37964603110000    0.11309746530000
 C         1.31680004210000    2.76942342660000    0.19637874230000
 C         0.70894898860000    3.80262884230000   -0.37141969120000
 C         1.79760602570000    0.32650757760000    0.09121417300000
 N         3.15636747290000    0.59127311730000    0.08919970730000
 H         2.79728419370000   -4.09362520080000   -0.34729636950000
 H         1.21437075840000   -3.50516697890000   -1.04882764960000
 H         3.16329153300000   -1.95264199590000    0.72136236980000
 H        -0.36190151470000   -2.26734540340000    0.06992777080000
 H        -2.47240071880000   -2.47340053920000    0.81712018310000
 H        -2.41764474940000   -2.39875024530000   -0.95295784310000
 H        -3.91656619430000   -2.05323748310000   -0.09643199050000
 H        -2.67613396840000   -0.34623006800000    2.16780610130000
 H        -4.18027347780000   -0.04477751440000    1.29147933790000
 H        -2.93241454050000    1.19835519870000    1.36066404570000
 H        -2.61522175300000   -0.15065042880000   -2.12722010950000
 H        -2.90710355230000    1.31263996610000   -1.19002011930000
 H        -4.14569159110000    0.06272466960000   -1.27126708280000
 H        -1.17872905290000    1.91983397590000    0.11853208080000
 H         2.20938932230000    2.94038609690000    0.78697943670000
 H        -0.16898969210000    3.68273391090000   -0.98397389660000
 H         1.07295773520000    4.80930481280000   -0.25396699080000
 H         3.42235076420000    1.50556237290000   -0.23719843150000
 H         3.74500067400000   -0.14833791690000   -0.25670840860000
$end

$rem
 BASIS = 6-31G*
 GUI = 2
 METHOD = B3LYP
 PRINT_ORBITALS false
 MOLDEN_FORMAT false
$end