$molecule
0 1
 C        -1.64425492690000   -0.11498404640000    2.82820464070000
 C        -1.49525166270000    0.34659203270000    1.59394453900000
 C        -1.54252673410000   -0.47086232920000    0.38193627240000
 C        -2.35371164340000   -1.60162784850000    0.31597732350000
 C        -2.44057106080000   -2.35284603180000   -0.83996434310000
 C        -1.72366614120000   -1.97720223370000   -1.96382758660000
 C        -0.91709632530000   -0.85585647130000   -1.91848170390000
 C        -0.80669538140000   -0.10336645310000   -0.75499318390000
 C         0.08390652600000    1.07220474760000   -0.74661279320000
 C        -0.12344392360000    2.07660050400000   -1.68786541310000
 C         0.64725160790000    3.22366587390000   -1.69273946620000
 C         1.64036735300000    3.38963434590000   -0.74114975230000
 C         1.86514104450000    2.39845797000000    0.19436570260000
 C         1.11162797260000    1.22656502520000    0.19326806610000
 C         1.43850463130000    0.20044023640000    1.18794097960000
 C         1.56633189570000   -1.09310533420000    0.95484591620000
 F         1.44048278260000   -1.71741633270000   -0.20891456290000
 F         1.88694495390000   -1.98354493630000    1.89335608750000
 H        -1.61360679910000    0.53891010890000    3.68293679440000
 H        -1.78432308660000   -1.16243842190000    3.03641564260000
 H        -1.31977032840000    1.40374528930000    1.43531152470000
 H        -2.93897286890000   -1.87807856530000    1.18019129710000
 H        -3.07366069620000   -3.22746787960000   -0.86749739980000
 H        -1.79189732500000   -2.55681464900000   -2.87220502110000
 H        -0.34065175750000   -0.56709971240000   -2.78531920410000
 H        -0.91809848150000    1.95535039080000   -2.40980403240000
 H         0.46692737980000    3.99204600440000   -2.42960706050000
 H         2.23826786780000    4.28849620200000   -0.72895863870000
 H         2.64648434770000    2.51802815560000    0.93084960540000
 H         1.64774908020000    0.53083782110000    2.19455068750000
$end

$rem
 BASIS = 6-31G*
 GUI = 2
 METHOD = B3LYP
 PRINT_ORBITALS false
 MOLDEN_FORMAT false
$end