$molecule
0 1
 C        -2.26681684110000   -3.49564870960000   -0.42785564970000
 C        -2.56389026920000   -2.21699097260000   -0.22700845790000
 C        -1.62373633410000   -1.11369908690000   -0.09071030550000
 C        -2.11176031990000    0.18079013420000    0.09637513070000
 C        -1.28435050350000    1.28138786220000    0.23683322440000
 C        -1.85427050920000    2.60860658440000    0.47844433220000
 C        -2.98852807950000    3.05032374920000   -0.04712679540000
 C         0.11757127090000    1.10879884730000    0.17796801820000
 N         0.95610262420000    2.17561084600000    0.31836008760000
 C         0.60791500240000   -0.19715572210000    0.00439420990000
 C         2.08741071920000   -0.42000208520000   -0.05252570860000
 F         2.67951751250000    0.26112708920000   -1.06628297290000
 F         2.72993132480000   -0.00838357260000    1.06309892680000
 F         2.43290899690000   -1.69965706470000   -0.22537610670000
 C        -0.24343252010000   -1.28235317150000   -0.12635118160000
 H        -3.03925843520000   -4.23981015860000   -0.51662936880000
 H        -1.25610530290000   -3.85539978060000   -0.51245052140000
 H        -3.60490300220000   -1.92667584410000   -0.15400297840000
 H        -3.17957858970000    0.33190065570000    0.15815727210000
 H        -1.29788025140000    3.24594451090000    1.15508244910000
 H        -3.56481572470000    2.45955976480000   -0.73904164670000
 H        -3.37606897940000    4.02750465790000    0.18435030100000
 H         0.57186249610000    3.09444614540000    0.19026382510000
 H         1.93284890580000    2.07599704070000    0.10790498790000
 H         0.18122667340000   -2.26408696230000   -0.25699143540000
$end

$rem
 BASIS = 6-31G*
 GUI = 2
 METHOD = B3LYP
 PRINT_ORBITALS false
 MOLDEN_FORMAT false
$end