$molecule
0 1
 C         1.13877767890000    1.55716969750000    2.09974800710000
 C         1.68565087410000    0.36669064200000    1.89386267260000
 C         1.61616133420000   -0.40998821780000    0.66771243320000
 C         2.65234509160000   -1.31439842230000    0.30524596030000
 C         2.45681215610000   -1.90842881950000   -0.89489857820000
 S         0.98597110800000   -1.40932545690000   -1.63047364770000
 C         0.62031408290000   -0.36738369550000   -0.28334318890000
 C        -0.62091450740000    0.36724585060000   -0.28220939280000
 S        -0.98839895780000    1.41011879780000   -1.62809143300000
 C        -2.45751253180000    1.90980603480000   -0.88936904650000
 C        -2.65125136380000    1.31508995730000    0.31073599070000
 C        -1.61506532320000    0.40973291550000    0.67060237270000
 C        -1.68244930820000   -0.36783930800000    1.89632687130000
 C        -1.13725077460000   -1.55955088910000    2.09926669790000
 H         1.26189433710000    2.07503512090000    3.03521170270000
 H         0.56169956230000    2.06258730740000    1.34519571890000
 H         2.29223571750000   -0.08395498400000    2.66993255870000
 H         3.51679173710000   -1.48763560540000    0.92176587270000
 H         3.08383370850000   -2.61515545460000   -1.40113264410000
 H        -3.08496163460000    2.61726747200000   -1.39402996420000
 H        -3.51442507130000    1.48846006220000    0.92895780040000
 H        -2.28561214890000    0.08336315290000    2.67483385310000
 H        -0.56316961060000   -2.06509198320000    1.34248194200000
 H        -1.25800168310000   -2.07801335610000    3.03473177220000
$end

$rem
 BASIS = 6-31G*
 GUI = 2
 METHOD = B3LYP
 PRINT_ORBITALS false
 MOLDEN_FORMAT false
$end