$molecule
0 1
 C         5.90100413250000   -0.85535471000000   -0.14898628810000
 C         5.04502062110000    0.13259702280000    0.08856634290000
 C         3.58971787120000    0.06049279500000    0.03717184450000
 C         2.84171098810000    1.10075171120000    0.60488006770000
 F         3.48326254230000    2.11946090240000    1.19207755300000
 C         1.45598269870000    1.11045031020000    0.59505741540000
 F         0.79648911940000    2.11306587910000    1.18404045840000
 C         0.73684475000000    0.07192036310000    0.00735053260000
 C        -0.73685046190000    0.07188378930000   -0.00763891350000
 C        -1.45608257850000    1.11041043850000   -0.59523528530000
 F        -0.79668441150000    2.11302283150000   -1.18433237230000
 C        -2.84181654780000    1.10070934670000   -0.60482457650000
 F        -3.48347979050000    2.11941147090000   -1.19191881160000
 C        -3.58972107740000    0.06043974010000   -0.03700532040000
 C        -5.04503953800000    0.13255305540000   -0.08803097230000
 C        -5.90089992000000   -0.85557428180000    0.14920837570000
 C        -2.85423110410000   -0.97162857630000    0.55579598700000
 F        -3.47453525360000   -1.99444233010000    1.15548928680000
 C        -1.46624924170000   -0.96527198450000    0.56809247160000
 F        -0.81385192840000   -1.96221272730000    1.17574116440000
 C         1.46633888680000   -0.96521575060000   -0.56829241590000
 F         0.81403968340000   -1.96215741850000   -1.17604119610000
 C         2.85432140440000   -0.97156115780000   -0.55577994500000
 F         3.47471730930000   -1.99439669140000   -1.15534042010000
 H         6.96081980040000   -0.68355726080000   -0.07318935180000
 H         5.59946707100000   -1.85265503980000   -0.41340303820000
 H         5.42288786190000    1.10442074290000    0.37672761910000
 H        -5.42301295070000    1.10454589370000   -0.37544990010000
 H        -5.59921418950000   -1.85297914830000    0.41302407130000
 H        -6.96074853240000   -0.68382179370000    0.07372575180000
$end

$rem
 BASIS = 6-31G*
 GUI = 2
 METHOD = B3LYP
 PRINT_ORBITALS false
 MOLDEN_FORMAT false
$end