$molecule
0 1
 C         4.37041722930000   -0.10474384140000    0.42034068170000
 C         3.22007011940000   -0.67915619600000    0.08875485280000
 C         1.91901228300000   -0.03110671820000   -0.00498165630000
 C         1.71193474770000    1.32141094250000    0.27318129640000
 C         0.45465571390000    1.87088370110000    0.16745291550000
 C        -0.65712900350000    1.10574569630000   -0.19439105840000
 C        -1.95847747250000    1.77588690770000   -0.23706778960000
 C        -3.10243395490000    1.29130882340000    0.22662119810000
 C        -0.45389847640000   -0.24249587650000   -0.50630187800000
 C        -1.57542545660000   -1.13375967550000   -0.99025502920000
 C        -2.12489697390000   -1.87353769170000    0.11860612920000
 N        -2.54039522410000   -2.45524364910000    1.01091457070000
 C         0.81697777010000   -0.78514877050000   -0.40420720790000
 H         5.28502116110000   -0.67067167650000    0.46344982890000
 H         4.45351314800000    0.94113747900000    0.66085664530000
 H         3.21160537460000   -1.73776258260000   -0.14183539890000
 H         2.53857450340000    1.94637000020000    0.57188872640000
 H         0.30993843640000    2.91883916370000    0.38933584040000
 H        -1.93148498550000    2.78238181640000   -0.63902210640000
 H        -3.17630603470000    0.32551268200000    0.69805986340000
 H        -4.01125170660000    1.86808261670000    0.18467164780000
 H        -1.19433991850000   -1.85325197300000   -1.72135953750000
 H        -2.37287184870000   -0.54398798050000   -1.44997058540000
 H         0.95948063580000   -1.83065743640000   -0.64435337110000
$end

$rem
 BASIS = 6-31G*
 GUI = 2
 METHOD = B3LYP
 PRINT_ORBITALS false
 MOLDEN_FORMAT false
$end