$molecule
0 1
 C        -4.85610469260000    0.70894646600000    1.26306167520000
 C        -4.09538387990000    1.10541354360000   -0.00055966320000
 C        -3.80288876260000    2.60601882100000   -0.00468652310000
 O        -2.77585733160000    0.49435440290000   -0.00168761760000
 C        -2.64209074140000   -0.82512098530000    0.00067259630000
 N        -1.30213695850000   -1.19693349160000    0.00054253960000
 C        -0.92200147190000   -2.53280750200000    0.00082174530000
 C         0.42317784450000   -2.64079888420000    0.00087717400000
 C        -0.14989834010000   -0.42636792810000    0.00045917920000
 C         0.95414302140000   -1.31083592540000    0.00058721190000
 C         2.25334064460000   -0.82311013930000    0.00057323480000
 C         2.45440620430000    0.55293527180000    0.00063658660000
 C         3.77390651250000    1.16482859170000    0.00040673780000
 C         4.95908288210000    0.57311622240000   -0.00119238240000
 F         5.22816761750000   -0.72764349230000   -0.00267355040000
 F         6.10877572160000    1.24886563540000   -0.00143321780000
 C         1.34233295060000    1.41334629710000    0.00085575670000
 C         0.04508739800000    0.94701244940000    0.00069361800000
 O        -3.52263994660000   -1.64553883560000    0.00269528530000
 C        -4.86153824830000    0.70321451620000   -1.25906421260000
 H        -4.27034578820000    0.95609208940000    2.14610518630000
 H        -5.06038437950000   -0.35814258560000    1.26356756280000
 H        -5.79860630910000    1.24732526860000    1.30385302580000
 H        -3.22771426270000    2.87789317830000    0.87679753990000
 H        -4.73426660180000    3.16392838090000   -0.00362654320000
 H        -3.23210839950000    2.87385562710000   -0.89025285970000
 H        -1.68479148460000   -3.28656490110000    0.00092090420000
 H         0.99465361310000   -3.54706533340000    0.00102921010000
 H         3.07976413830000   -1.51388511420000    0.00068533300000
 H         3.80497636250000    2.24494076790000    0.00140382930000
 H         1.51313570350000    2.47967357770000    0.00107906940000
 H        -0.78506389750000    1.63228893140000    0.00074356050000
 H        -5.80400105150000    1.24178236180000   -1.29826489470000
 H        -5.06621546060000   -0.36377823540000   -1.25376140640000
 H        -4.27953558910000    0.94605851230000   -2.14577274800000
$end

$rem
 BASIS = 6-31G*
 GUI = 2
 METHOD = B3LYP
 PRINT_ORBITALS false
 MOLDEN_FORMAT false
$end