$molecule
0 1
 C         3.94303751700000    0.25494840450000   -0.44349841540000
 C         3.06309308690000   -0.47180362700000    0.23516058800000
 C         1.60405613950000   -0.37397397740000    0.15612547610000
 C         0.88922842040000   -1.56212657800000    0.19701328600000
 C        -0.49059191350000   -1.52314211910000    0.07348940700000
 N        -1.41237500620000   -2.54215284620000    0.02706108720000
 C        -2.55537699100000   -1.96274379200000   -0.14185096570000
 N        -2.47572306690000   -0.59924412660000   -0.20153266300000
 C        -1.14993896560000   -0.28139442140000   -0.06298678070000
 C        -0.46765194950000    0.93418311970000   -0.06494159700000
 C        -1.16283957350000    2.20966569760000   -0.22150311350000
 C        -2.34497791650000    2.50779369350000    0.30468539440000
 C         0.93080216860000    0.87195812580000    0.05461891440000
 N         1.65322273480000    2.05170203540000    0.08485377270000
 H         5.00256990670000    0.08801457880000   -0.34155375910000
 H         3.64493798920000    1.00608300690000   -1.15535898700000
 H         3.42296316020000   -1.26487161770000    0.88051584300000
 H         1.40043082140000   -2.50645851270000    0.29538250310000
 H        -3.49092258250000   -2.48218786410000   -0.22279871230000
 H        -3.22565457020000    0.04746827050000   -0.37665900930000
 H        -0.65420875530000    2.94738461010000   -0.83142272590000
 H        -2.87090327910000    1.83001373570000    0.95722739220000
 H        -2.81633640550000    3.46049797040000    0.13188875330000
 H         1.14549608360000    2.85954443320000    0.40795116840000
 H         2.58122569540000    1.96769995500000    0.47166841570000
$end

$rem
 BASIS = 6-31G*
 GUI = 2
 METHOD = B3LYP
 PRINT_ORBITALS false
 MOLDEN_FORMAT false
$end