$molecule
0 1
 C           -3.96295653990000       -1.49388537480000        0.00745467600000
 C           -2.63601558800000       -1.51119457340000       -0.00412493640000
 C           -1.81951547050000       -0.30212039110000       -0.00330983380000
 C           -0.42606462670000       -0.39795490440000       -0.00435748760000
 C            0.34115396780000        0.76475093960000       -0.00162732150000
 C            1.79670903990000        0.78080053840000       -0.00036013190000
 C            2.62544519650000       -0.25252486300000        0.00068072520000
 F            2.32070475260000       -1.54238832380000        0.00005324970000
 F            3.94870774870000       -0.12237440890000        0.00267391320000
 C           -0.33992302180000        1.98549324460000        0.00062275070000
 C           -1.72485836440000        1.97398885650000        0.00074435040000
 N           -2.44833180940000        0.87368399600000       -0.00075710040000
 H           -4.54584369210000       -2.39871245620000        0.00743353400000
 H           -4.49381795730000       -0.55764461700000        0.01752742150000
 H           -2.08842867060000       -2.44428756380000       -0.01377059860000
 H            0.03456849190000       -1.37201409180000       -0.00669498880000
 H            2.26760514220000        1.75331232910000        0.00066313890000
 H            0.20223956380000        2.91828914650000        0.00245857410000
 H           -2.28598271240000        2.89988264930000        0.00246953920000
$end

$rem
 BASIS = 6-31G*
 GUI = 2
 METHOD = B3LYP
 PRINT_ORBITALS false
 MOLDEN_FORMAT false
$end