$molecule
0 1
 C        -3.69027612070000    0.50529221950000    0.06736855860000
 C        -2.45208932250000    0.97472212710000   -0.02366182010000
 C        -1.21951013640000    0.19456620530000   -0.02022860170000
 C        -1.20186690690000   -1.20080179610000   -0.01256999840000
 C        -0.00001720160000   -1.88340693750000   -0.00933588020000
 C         1.20182607580000   -1.20078291200000   -0.01114772330000
 C         1.21948363740000    0.19458794040000   -0.01904599190000
 C         2.45200056980000    0.97483034430000   -0.02157185710000
 C         3.69045986560000    0.50521154820000    0.06525094900000
 C        -0.00001774530000    0.86788466510000   -0.02785532750000
 H        -4.54080108410000    1.16533370320000    0.05795935500000
 H        -3.91216281160000   -0.54421656580000    0.15687495630000
 H        -2.30427586270000    2.04530548610000   -0.10322714220000
 H        -2.12739348320000   -1.75488131600000   -0.01527646740000
 H        -0.00000418370000   -2.96417338870000   -0.00680025750000
 H         2.12733017300000   -1.75489475180000   -0.01236499240000
 H         2.30389034140000    2.04574001600000   -0.09653171860000
 H         3.91270570010000   -0.54461457650000    0.15034922830000
 H         4.54083094000000    1.16545991600000    0.05754027520000
 H        -0.00003291790000    1.95005548710000   -0.03601496740000
$end

$rem
 BASIS = 6-31G*
 GUI = 2
 METHOD = B3LYP
 PRINT_ORBITALS false
 MOLDEN_FORMAT false
$end