$molecule
0 1
 C        -4.22042865900000   -1.30063557290000    0.06322694790000
 C        -3.00617337310000   -1.81511169510000   -0.10881978110000
 C        -1.78900720260000   -1.04578224200000   -0.08157168200000
 C        -0.48708881180000   -1.44398720890000   -0.23942463370000
 C         0.31830036010000   -0.28320322170000   -0.11277814520000
 C         1.77982884780000   -0.38587848060000   -0.18900331800000
 O         2.35165542250000   -1.33493018230000   -0.66845138270000
 O         2.43280343900000    0.64956876990000    0.36412957430000
 C         3.84973610240000    0.55832088300000    0.35211329680000
 C        -0.56386820580000    0.77132359630000    0.10457044900000
 C        -0.47689015670000    2.20164232470000    0.25936850950000
 C         0.58659486900000    2.98149437760000    0.09233089690000
 O        -1.82448494540000    0.29020030510000    0.12408595140000
 H        -5.10309910840000   -1.91423603260000    0.03463768430000
 H        -4.36133478760000   -0.24768650390000    0.23806202000000
 H        -2.86286634020000   -2.87172543900000   -0.28433957720000
 H        -0.12146928900000   -2.43443440660000   -0.41549978260000
 H         4.21480072730000    1.43533602330000    0.88063163950000
 H         4.22149614620000    0.54454287390000   -0.67490034900000
 H         4.17534080350000   -0.35560147070000    0.85297171980000
 H        -1.43488654290000    2.64178203120000    0.50912642680000
 H         1.55079084230000    2.58910879090000   -0.16788710340000
 H         0.50924922020000    4.04730989400000    0.21975110040000
$end

$rem
 BASIS = 6-31G*
 GUI = 2
 METHOD = B3LYP
 PRINT_ORBITALS false
 MOLDEN_FORMAT false
$end