$molecule
0 1
 C         4.16648328020000   -0.01601472820000    0.43713837200000
 C         3.01764529930000    0.51106684490000    0.02394258120000
 C         1.75195758790000   -0.17407843720000   -0.01407520420000
 N         1.62328132430000   -1.52142237960000    0.06358351920000
 N         0.36193868350000   -1.92744376550000   -0.07118809070000
 C        -0.35431271330000   -0.82295045200000   -0.23598602660000
 N        -1.72864793900000   -0.94216769590000   -0.40686310740000
 C        -2.68679689970000   -0.08830268120000    0.06987205620000
 C        -4.08798982850000   -0.61694579290000   -0.16140498090000
 O        -2.44787857320000    0.97023290040000    0.59795753090000
 C         0.46382983720000    0.33115186380000   -0.21784779430000
 C         0.06069242520000    1.71017696260000   -0.40658955520000
 C         0.60818666970000    2.74382172980000    0.21832074860000
 H         5.07913543140000    0.55298569000000    0.42336944200000
 H         4.24211815130000   -1.02064226430000    0.81938974590000
 H         2.98174764120000    1.53372326370000   -0.32508021080000
 H         2.35772332110000   -2.20201267190000    0.16449680980000
 H        -2.01314699230000   -1.88118950530000   -0.64931499880000
 H        -4.23530981660000   -0.84978020300000   -1.21356137730000
 H        -4.80796769980000    0.13491331120000    0.14779899510000
 H        -4.24489102130000   -1.52101085380000    0.42357823040000
 H        -0.75119472410000    1.86470628740000   -1.10355025340000
 H         1.37539185650000    2.62060414240000    0.96438888210000
 H         0.27651479790000    3.75042781680000    0.03205779290000
$end

$rem
 BASIS = 6-31G*
 GUI = 2
 METHOD = B3LYP
 PRINT_ORBITALS false
 MOLDEN_FORMAT false
$end