$molecule
0 1
 C           -1.61390377560000        3.89589266580000       -0.02585958400000
 C           -0.47222465200000        3.21911981400000       -0.04139301400000
 C           -0.31655227060000        1.76827932660000        0.00638883910000
 C           -1.40358456320000        0.89596639940000       -0.02863068590000
 C           -1.22756919960000       -0.48562730010000        0.02086893100000
 C           -2.33096624220000       -1.43497177110000       -0.01192427510000
 C           -3.63110107360000       -1.18786328220000       -0.06471195100000
 F           -4.23917888420000       -0.00777462130000       -0.10092635920000
 F           -4.55396926320000       -2.14594941380000       -0.08864105510000
 C            0.06745656970000       -0.99510842270000        0.10490592240000
 C            1.16094896180000       -0.13919719550000        0.13915931010000
 C            2.51580519470000       -0.74345398720000        0.22894795730000
 O            2.71968423990000       -1.93280777370000        0.26147189510000
 O            3.48319691630000        0.17969157760000        0.28262359460000
 C            4.82625839730000       -0.29763626200000        0.35899350710000
 C            5.37031655700000       -0.65458448350000       -1.01690274970000
 C            0.96983024200000        1.23576811340000        0.08812373120000
 H           -1.62335234610000        4.97164649550000       -0.06167975540000
 H           -2.57801156690000        3.42013420490000        0.02626317630000
 H            0.46165595320000        3.76576268760000       -0.08507734170000
 H           -2.39654175380000        1.30478570320000       -0.10088794250000
 H           -2.06237896810000       -2.48109904280000        0.01289985950000
 H            0.24465205760000       -2.05925749580000        0.14466604660000
 H            4.85398733970000       -1.17409653630000        1.01490064970000
 H            5.39250027900000        0.52170302490000        0.80701338530000
 H            4.80157298520000       -1.48034467490000       -1.43721984720000
 H            6.41132875250000       -0.95220235920000       -0.93044244850000
 H            5.29839490140000        0.20085589070000       -1.68448511910000
 H            1.82694679570000        1.89074805510000        0.11461417630000
$end

$rem
 BASIS = 6-31G*
 GUI = 2
 METHOD = B3LYP
 PRINT_ORBITALS false
 MOLDEN_FORMAT false
$end