$molecule
0 1
 C        -4.11072499800000    1.08594919830000   -0.08735456580000
 C        -3.57545583640000   -0.12882742760000   -0.04914386150000
 C        -2.15658237390000   -0.45337889710000    0.00388943860000
 C        -1.76269297560000   -1.79139493500000    0.08073913680000
 C        -0.43224668730000   -2.14386920630000    0.13783568750000
 C         0.57814722990000   -1.18148316380000    0.11948526180000
 C         1.98470529350000   -1.56878224520000    0.19036026580000
 C         2.47414132210000   -2.69142095620000   -0.31973334510000
 C         0.18078499440000    0.16201282180000    0.04211337010000
 C         1.21945844550000    1.24826463690000   -0.00143073040000
 F         1.91250548640000    1.35421188480000    1.15182292760000
 F         2.13628944220000    1.05902311330000   -0.96883210060000
 F         0.69945161950000    2.46494476870000   -0.22316179990000
 C        -1.15547833210000    0.51676346900000   -0.01683186170000
 H        -5.17758520810000    1.22284938790000   -0.12459358350000
 H        -3.52175984990000    1.98665678590000   -0.08213075680000
 H        -4.23034986690000   -0.99142297210000   -0.05363975720000
 H        -2.51849012180000   -2.56350688000000    0.10212225060000
 H        -0.15770095890000   -3.18407081910000    0.21970816920000
 H         2.65204311030000   -0.87677363170000    0.68432065490000
 H         1.86050624460000   -3.39553379570000   -0.85635129370000
 H         3.51948635640000   -2.93300285750000   -0.23987951670000
 H        -1.41855452890000    1.56008290150000   -0.08319100960000
$end

$rem
 BASIS = 6-31G*
 GUI = 2
 METHOD = B3LYP
 PRINT_ORBITALS false
 MOLDEN_FORMAT false
$end