$molecule
0 1
 C         0.60888088590000   -3.28384195330000   -0.48880868380000
 C        -0.05606524450000   -2.65532471650000    0.46559582100000
 C        -0.83912609150000   -1.42259440170000    0.26751993420000
 C        -2.20779339200000   -1.46971173520000    0.51279157720000
 C        -3.00954013750000   -0.35897933500000    0.32719946140000
 C        -2.45071484180000    0.82831504730000   -0.11127365510000
 C        -1.08812813270000    0.88122203870000   -0.32880762290000
 F        -0.56471669210000    2.03430464380000   -0.78971056300000
 C        -0.24841964090000   -0.21606786940000   -0.13567897320000
 C         1.19892129630000   -0.10495379970000   -0.32497796800000
 C         1.93771648670000    0.91789283740000    0.07264555660000
 F         1.53997235760000    1.98587809980000    0.74349029000000
 F         3.25377050030000    0.98066388650000   -0.11267824060000
 H         1.13578645720000   -4.20349554320000   -0.30074742030000
 H         0.63604877330000   -2.91593191560000   -1.50170002000000
 H        -0.10394278830000   -3.07395692830000    1.46331171520000
 H        -2.64447948130000   -2.40105086230000    0.84152632690000
 H        -4.07005296430000   -0.41738795170000    0.51652636990000
 H        -3.04791079340000    1.70896315420000   -0.28463878860000
 H         1.71910878250000   -0.92437825580000   -0.79228603070000
$end

$rem
 BASIS = 6-31G*
 GUI = 2
 METHOD = B3LYP
 PRINT_ORBITALS false
 MOLDEN_FORMAT false
$end