$molecule
0 1
 C        -4.47079361080000    0.49425283020000   -0.72064859400000
 C        -3.67761408660000   -0.54919580870000   -0.51015232000000
 C        -2.26287304140000   -0.51464942070000   -0.15910893080000
 C        -1.60407394970000   -1.71369994080000    0.11453642440000
 C        -0.26673227840000   -1.72086416540000    0.45651246610000
 C         0.45991783810000   -0.54223578210000    0.53179184670000
 C         1.91197954340000   -0.58224406170000    0.92173706340000
 C         2.83361324160000   -0.45643406930000   -0.28643143350000
 O         2.47596432980000   -0.39207714300000   -1.42267372150000
 O         4.14633187930000   -0.42848507560000    0.02687464610000
 C        -0.17826137930000    0.67129702160000    0.24609973060000
 C         0.55717107360000    1.93902893200000    0.28177502570000
 C         0.05779063930000    3.07799021660000    0.73897976720000
 C        -1.52658888820000    0.66512291020000   -0.08883610440000
 H        -5.50889946140000    0.36507740780000   -0.97484480640000
 H        -4.12799392240000    1.51219899920000   -0.65034921220000
 H        -4.09324696330000   -1.54649838310000   -0.59206347100000
 H        -2.14701401800000   -2.64633437130000    0.05881360120000
 H         0.22249024840000   -2.66126846940000    0.66941486250000
 H         2.13812053440000   -1.53534772930000    1.41018546070000
 H         2.14344208240000    0.22630347390000    1.62228866620000
 H         4.30872819250000   -0.49200604560000    0.97698907900000
 H         1.56578113060000    1.91165172970000   -0.10923949260000
 H        -0.93566253440000    3.13886180530000    1.15214758960000
 H         0.62846515820000    3.99104253910000    0.73258387050000
 H        -1.99791723710000    1.60538062230000   -0.32717961850000
$end

$rem
 BASIS = 6-31G*
 GUI = 2
 METHOD = B3LYP
 PRINT_ORBITALS false
 MOLDEN_FORMAT false
$end