$molecule
0 1
 C         3.47600149840000    1.75058088890000    0.39918228970000
 C         2.33645681940000    1.74630012340000   -0.27894203820000
 C         1.28204156340000    0.75218725420000   -0.16892871180000
 C        -0.08147234130000    1.08565336960000   -0.24201782170000
 C        -0.81286650780000   -0.06201588850000    0.00321877930000
 C        -2.23891865220000   -0.32626935330000    0.06244027740000
 O        -2.71143147210000   -1.41931242340000    0.29541807010000
 O        -2.97945003910000    0.77125660070000   -0.16988192120000
 C        -4.38464474160000    0.58195665900000   -0.12776982700000
 N         0.07598882810000   -1.07469447820000    0.21277988370000
 C         1.35078048030000   -0.62370395650000    0.10065212140000
 C         2.43730814000000   -1.57102080390000    0.18905620960000
 C         3.65530159220000   -1.42739158110000   -0.32280694160000
 H         4.19040599790000    2.54904211080000    0.29342201120000
 H         3.73142359960000    0.96377270980000    1.08836663090000
 H         2.09563387430000    2.57913112960000   -0.92882725630000
 H        -0.48862473930000    2.05870803240000   -0.43036350290000
 H        -4.82792242230000    1.55555842300000   -0.32008494510000
 H        -4.68930325940000    0.20789273630000    0.85225769360000
 H        -4.69481008090000   -0.13804142890000   -0.88847313090000
 H        -0.20799612360000   -2.02740414100000    0.38276599870000
 H         2.17444414940000   -2.49966190330000    0.68411989020000
 H         3.94824918130000   -0.53848796060000   -0.85257855640000
 H         4.39332654690000   -2.20516404770000   -0.23144721000000
$end

$rem
 BASIS = 6-31G*
 GUI = 2
 METHOD = B3LYP
 PRINT_ORBITALS false
 MOLDEN_FORMAT false
$end