$molecule
0 1
 C         1.66601529530000    2.43744137710000   -0.48851851840000
 C         0.77917353190000    1.94527402450000    0.36284687350000
 C         0.07655919520000    0.67189322830000    0.18800470230000
 C        -1.30423721050000    0.65163553230000    0.37236146530000
 C        -2.04481666170000   -0.48888343070000    0.09863213420000
 C        -3.52387374430000   -0.54291083450000    0.31354202280000
 C        -1.33778098280000   -1.58372445850000   -0.39083678060000
 N        -0.02970492260000   -1.60265444980000   -0.53094698390000
 C         0.68926920630000   -0.52708270580000   -0.22001195110000
 C         2.13650490080000   -0.74055690730000   -0.29679206320000
 C         3.02733948090000   -0.26028756920000    0.55787276760000
 H         2.11628227180000    3.40422075710000   -0.34130193600000
 H         1.97616373810000    1.88907711370000   -1.36203952020000
 H         0.46063508880000    2.53354157050000    1.21565355660000
 H        -1.80473585310000    1.55035981470000    0.70918873030000
 H        -3.96294246110000    0.44970355680000    0.24198035320000
 H        -3.74028639590000   -0.93896699280000    1.30647019070000
 H        -3.99555569070000   -1.19534633640000   -0.41794507560000
 H        -1.85021304750000   -2.49453474520000   -0.67533256190000
 H         2.43558034030000   -1.43688800930000   -1.06866487870000
 H         2.74908884150000    0.39327460800000    1.36768077250000
 H         4.07260200280000   -0.50613274920000    0.47895783800000
$end

$rem
 BASIS = 6-31G*
 GUI = 2
 METHOD = B3LYP
 PRINT_ORBITALS false
 MOLDEN_FORMAT false
$end