$molecule
0 1
 C            0.52832736570000       -2.56433142290000        0.16786464610000
 C            1.08973738370000       -1.61070178770000       -0.56122086980000
 C            1.10523886700000       -0.19530273620000       -0.21322798690000
 C            2.20293781610000        0.58540279240000       -0.43228657150000
 S            2.03666600820000        2.17549003580000        0.18934324620000
 C            0.45834570600000        1.81560126910000        0.74809538940000
 C            0.07179073410000        0.53785026910000        0.45974228210000
 C           -1.27226000940000        0.06794392050000        0.76928732080000
 C           -2.03065849800000       -0.65840993480000       -0.03412469530000
 F           -1.71797843720000       -1.10209888170000       -1.24408139020000
 F           -3.26662525220000       -1.04929843270000        0.27172551960000
 H            0.57765904180000       -3.59772514870000       -0.12765328920000
 H            0.00656240170000       -2.35323555600000        1.08648650220000
 H            1.64024947410000       -1.86633258460000       -1.45698412250000
 H            3.12257294440000        0.29644853780000       -0.90134109270000
 H           -0.12058744020000        2.57723509270000        1.23194286300000
 H           -1.71541160160000        0.39207595740000        1.69881384330000
$end

$rem
 BASIS = 6-31G*
 GUI = 2
 METHOD = B3LYP
 PRINT_ORBITALS false
 MOLDEN_FORMAT false
$end