$molecule
0 1
 C            0.52995685020000       -2.56405930060000       -0.16826940480000
 C            1.08814883540000       -1.61032091270000        0.56311029870000
 C            1.10450958770000       -0.19509731600000        0.21426499910000
 C            2.20201988040000        0.58569118020000        0.43370438060000
 S            2.03664646850000        2.17497746460000       -0.19039597960000
 C            0.45879540550000        1.81465452810000       -0.75018957280000
 C            0.07184114200000        0.53730847270000       -0.46064513560000
 C           -1.27201308080000        0.06685798560000       -0.77020710270000
 C           -2.03044565020000       -0.65832274190000        0.03422123890000
 F           -1.71785532960000       -1.09966051780000        1.24511051080000
 F           -3.26633902500000       -1.04992844600000       -0.27100175600000
 H            0.57791525110000       -3.59747067130000        0.12742757730000
 H            0.01217238840000       -2.35287455210000       -1.08913471000000
 H            1.63477512170000       -1.86558268330000        1.46135847870000
 H            3.12112190390000        0.29732873530000        0.90414880650000
 H           -0.11952602870000        2.57577269100000       -1.23559210070000
 H           -1.71480503690000        0.38948475790000       -1.70044831990000
$end

$rem
 BASIS = 6-31G*
 GUI = 2
 METHOD = B3LYP
 PRINT_ORBITALS false
 MOLDEN_FORMAT false
$end