$molecule
0 1
 C         3.50320882880000    0.66796725050000   -0.37139504520000
 C         2.71869909670000   -0.20876646820000    0.24417689940000
 C         1.26258098540000   -0.29780191990000    0.13305735030000
 C         0.69751212130000   -1.57048206180000    0.11475445330000
 C        -0.66598083580000   -1.71548831090000   -0.02178815550000
 F        -1.19847186310000   -2.96180254480000   -0.05305152030000
 C        -1.50187723280000   -0.62427156650000   -0.13865777720000
 C        -0.96812610680000    0.65801733930000   -0.09467842070000
 C        -1.84506145510000    1.81955480750000   -0.24676253350000
 C        -3.09692680450000    1.88703272470000    0.18643509180000
 C         0.42316713810000    0.83135844910000    0.06350076120000
 N         0.94808071970000    2.10508871060000    0.15037289840000
 H         4.57321406630000    0.64081204590000   -0.25011503430000
 H         3.11854115750000    1.40833651270000   -1.05224594950000
 H         3.16963164050000   -0.98027870680000    0.85738868520000
 H         1.32525638910000   -2.44503574080000    0.18645469940000
 H        -2.56012758190000   -0.77221080640000   -0.27966580420000
 H        -1.41709842680000    2.66569561590000   -0.77045910320000
 H        -3.55858828250000    1.07924315110000    0.72879082110000
 H        -3.70461002020000    2.76076602830000    0.02434324690000
 H         0.31388464070000    2.81467693480000    0.48016732880000
 H         1.87256597860000    2.15709723400000    0.55098291100000
$end

$rem
 BASIS = 6-31G*
 GUI = 2
 METHOD = B3LYP
 PRINT_ORBITALS false
 MOLDEN_FORMAT false
$end