$molecule
0 1
 C         3.69894363450000    1.39353863190000   -0.38903518520000
 C         3.05975020700000    0.34625008500000    0.11772600300000
 C         1.61799464700000    0.13781424620000    0.07512296180000
 C         0.72431945290000    1.20560669190000   -0.02803576140000
 C        -0.64861297910000    1.01531370590000   -0.05089902450000
 C        -1.53085580430000    2.17316965370000   -0.10501508870000
 C        -2.74580818520000    2.27358492820000    0.42281526880000
 C        -1.08910259300000   -0.32937413080000   -0.02769970700000
 N        -2.41189339590000   -0.66708816880000   -0.10459551120000
 N        -2.78057014690000   -2.00715943220000   -0.34844913090000
 N        -0.24360206960000   -1.35215388720000    0.07342637600000
 C         1.06184508700000   -1.14696069860000    0.14685738380000
 C         1.89804913000000   -2.38384463410000    0.27070759720000
 H         4.76919341760000    1.48668141190000   -0.31906208380000
 H         3.18806325400000    2.18966767710000   -0.90396355910000
 H         3.63251925920000   -0.43716504220000    0.59579878180000
 H         1.10821212570000    2.21559803840000   -0.05074188660000
 H        -1.09883035580000    3.03787677090000   -0.59630267440000
 H        -3.20138504630000    1.47847586870000    0.98727457320000
 H        -3.31013785240000    3.18775154320000    0.34581218410000
 H        -3.02401845360000   -0.00001042040000   -0.55762369220000
 H        -2.87242934600000   -2.48131503930000    0.54986888640000
 H        -2.01549200450000   -2.47134711950000   -0.84176457370000
 H         1.24972663120000   -3.25542088500000    0.25184079760000
 H         2.45202146450000   -2.37819490990000    1.20863704200000
 H         2.61155115480000   -2.44968898480000   -0.54882151340000
$end

$rem
 BASIS = 6-31G*
 GUI = 2
 METHOD = B3LYP
 PRINT_ORBITALS false
 MOLDEN_FORMAT false
$end