$molecule
0 1
 C         4.30889952540000    0.71115161780000   -0.00215059220000
 C         3.58132034280000   -0.40242615200000   -0.00208771450000
 C         2.14535106790000   -0.44898487510000    0.00016423490000
 C         1.35431599180000   -1.57275496120000    0.00143762670000
 C        -0.01826100990000   -1.29815828140000    0.00254493080000
 C        -0.29588658380000    0.04736535240000    0.00212133180000
 C        -1.55461371740000    0.73609617920000    0.00183042870000
 C        -2.75748073590000    0.17212538180000   -0.00040781710000
 F        -3.02753191280000   -1.12871414700000   -0.00251421280000
 F        -3.89512586310000    0.86104233370000   -0.00098946580000
 S         1.16764895200000    0.98581439480000    0.00079608700000
 H         5.38383839430000    0.68444852180000   -0.00434222680000
 H         3.84564516810000    1.68424853870000   -0.00015263750000
 H         4.06233685620000   -1.37237063820000   -0.00399886160000
 H         1.76049450980000   -2.56879882410000    0.00147048110000
 H        -0.77728207240000   -2.05855422050000    0.00358047600000
 H        -1.52926697950000    1.81513912100000    0.00302071560000
$end

$rem
 BASIS = 6-31G*
 GUI = 2
 METHOD = B3LYP
 PRINT_ORBITALS false
 MOLDEN_FORMAT false
$end