$molecule
0 1
 C         4.12818989700000   -0.68876118490000    0.14079234880000
 C         3.15042334320000    0.15194034340000   -0.18256681780000
 C         1.74203012980000   -0.13126945430000   -0.07299544120000
 N         1.23697080370000   -1.38422435650000    0.02345729330000
 N        -0.09818093720000   -1.41272683860000    0.03428312740000
 C        -0.48394488420000   -0.14867746950000   -0.05138635430000
 N        -1.79412323340000    0.27117205370000   -0.05034591310000
 C        -2.96474529530000   -0.44059552660000    0.02190801840000
 C        -2.83527707200000   -1.93058076840000    0.11972843320000
 O        -4.01817945670000    0.15769382310000    0.00322112750000
 C         0.63911620100000    0.72435779820000   -0.12142088880000
 C         0.59788350110000    2.16726981970000   -0.20520410550000
 C         1.51723979640000    2.99202708470000    0.28251054450000
 H         5.16165626610000   -0.41771960850000    0.01742345420000
 H         3.94156434720000   -1.66549617930000    0.55554476900000
 H         3.38285323700000    1.13420428350000   -0.56977334290000
 H         1.74826831230000   -2.25065256280000    0.03919780810000
 H        -1.92287967620000    1.27454961830000   -0.10635138530000
 H        -2.29371582690000   -2.31122559280000   -0.74196205590000
 H        -3.82685052610000   -2.37116172240000    0.16766863290000
 H        -2.26238261690000   -2.19262922280000    1.00510983100000
 H        -0.27416858100000    2.57864570710000   -0.70135197930000
 H         2.37706363200000    2.63531229100000    0.82294183060000
 H         1.42581019990000    4.05908063770000    0.17556411510000
$end

$rem
 BASIS = 6-31G*
 GUI = 2
 METHOD = B3LYP
 PRINT_ORBITALS false
 MOLDEN_FORMAT false
$end