$molecule
0 1
 C         2.71323281730000   -1.38080144410000   -0.21469915400000
 C         2.27482458610000   -0.17073680260000    0.12274329130000
 C         0.90456757320000    0.27067852810000    0.08468193890000
 S         0.58933209930000    1.97345246320000   -0.07267572620000
 C        -1.10306579310000    1.69015957450000   -0.09216541690000
 C        -1.42603166220000    0.37366774850000    0.01349471890000
 C        -2.83761933550000   -0.11210190820000    0.05503577130000
 C        -0.26813349780000   -0.45673342050000    0.11975432640000
 C        -0.29399624910000   -1.89394102990000    0.35218117650000
 C        -1.11445002640000   -2.75819699010000   -0.22979861750000
 H         3.75837421200000   -1.63003964130000   -0.15106666320000
 H         2.05496995740000   -2.14782769810000   -0.58325673550000
 H         2.98439107820000    0.58892908220000    0.42753964560000
 H        -1.77244846040000    2.52362448410000   -0.17824577150000
 H        -3.49928098530000    0.68559759250000    0.38526670290000
 H        -2.92831381120000   -0.95766235280000    0.73352597340000
 H        -3.16258302630000   -0.43170963230000   -0.93508620430000
 H         0.43785337050000   -2.24653644590000    1.07017646540000
 H        -1.82275920660000   -2.46244527930000   -0.98378116520000
 H        -1.08370909950000   -3.80783047280000    0.00947468570000
$end

$rem
 BASIS = 6-31G*
 GUI = 2
 METHOD = B3LYP
 PRINT_ORBITALS false
 MOLDEN_FORMAT false
$end