$molecule
0 1
 C        -4.84052605510000    1.13145239110000   -1.26472301870000
 C        -4.73240073360000    0.27140632380000   -0.00703349140000
 C        -5.78330026680000   -0.83865027620000   -0.02129503710000
 O        -3.46984227030000   -0.44778658580000   -0.00021675120000
 C        -2.31422368730000    0.21086891910000    0.00991652140000
 N        -1.25609248070000   -0.68765816350000    0.01042661470000
 C        -1.35767329270000   -2.07134688880000    0.00762855450000
 C        -0.12888069690000   -2.63289912380000    0.00403973850000
 C         0.09190308630000   -0.36011233460000    0.00849397740000
 C         0.82673034830000   -1.56616861280000    0.00387551880000
 C         2.21332848010000   -1.53255198690000   -0.00073900760000
 C         2.86411137280000   -0.30198540260000   -0.00060393220000
 C         4.31857801740000   -0.30969473690000   -0.00689127540000
 C         5.15790293840000    0.71512060780000   -0.00727058510000
 F         4.87653193830000    2.01305753480000   -0.00148778520000
 F         6.48358379460000    0.56536814780000   -0.01398312770000
 C         2.10911169220000    0.88380823380000    0.00485974950000
 C         0.72995844130000    0.87059974970000    0.00940714660000
 O        -2.16026434530000    1.40365387350000    0.01717937970000
 C        -4.86139207700000    1.11929449270000    1.25688937130000
 H        -4.69435572930000    0.51839505360000   -2.15170263570000
 H        -4.09045893770000    1.91737203460000   -1.25278041910000
 H        -5.82578663210000    1.58641868430000   -1.31004500770000
 H        -5.66065893550000   -1.45816321140000   -0.90588385090000
 H        -6.77883348380000   -0.40572638790000   -0.02770901700000
 H        -5.67573849560000   -1.46669531580000    0.85921552680000
 H        -2.32549768330000   -2.53160036490000    0.00889112920000
 H         0.09507898080000   -3.68107086270000    0.00167512360000
 H         2.77881757070000   -2.45244062890000   -0.00481044250000
 H         4.79153749640000   -1.28153926320000   -0.01234916060000
 H         2.61288984020000    1.83558403630000    0.00532168140000
 H         0.16404373070000    1.78700157550000    0.01339435390000
 H        -5.84683311290000    1.57497548130000    1.28950164940000
 H        -4.11041227230000    1.90439442190000    1.26549916220000
 H        -4.73128287610000    0.49755273750000    2.14030099140000
$end

$rem
 BASIS = 6-31G*
 GUI = 2
 METHOD = B3LYP
 PRINT_ORBITALS false
 MOLDEN_FORMAT false
$end