$molecule
0 1
 C         1.22887794880000   -3.93127969260000   -0.09343417080000
 C         0.10470154540000   -3.24168469220000    0.05709469120000
 C        -0.02933174500000   -1.78871228260000    0.04282192940000
 C         1.06993502570000   -0.93166768830000    0.03898752740000
 C         0.91530541220000    0.45200210080000    0.01922500960000
 C         2.03383605480000    1.38309838310000    0.01238131930000
 C         3.33086161210000    1.11117235300000   -0.00063417570000
 F         3.91457960380000   -0.07954164190000   -0.00994426350000
 F         4.26888218880000    2.05090850370000   -0.00800574110000
 C        -0.37431036510000    0.98956299060000    0.00625529820000
 C        -1.46909841360000    0.14341752430000    0.01765199150000
 C        -2.86616219830000    0.69698948170000   -0.00761617190000
 F        -2.91589581020000    2.02549825220000    0.15805659880000
 F        -3.48960561750000    0.43739243170000   -1.17333650310000
 F        -3.64216075820000    0.16367577230000    0.95270654640000
 C        -1.30912317070000   -1.23387282440000    0.03619357940000
 H         1.22706828510000   -5.00723803260000   -0.07391307400000
 H         2.18695510270000   -3.46568848380000   -0.24818241630000
 H        -0.82732232760000   -3.77535761410000    0.19220651270000
 H         2.05814395960000   -1.35706495840000    0.05962833920000
 H         1.78512332330000    2.43428993550000    0.01502698890000
 H        -0.51787792880000    2.05880345550000   -0.00784320930000
 H        -2.17964288290000   -1.87278594640000    0.04449855130000
$end

$rem
 BASIS = 6-31G*
 GUI = 2
 METHOD = B3LYP
 PRINT_ORBITALS false
 MOLDEN_FORMAT false
$end