$molecule
0 1
 C         2.33525009450000   -3.26976182180000   -0.33900295160000
 C         1.07827840700000   -2.85345434970000   -0.23546026560000
 C         0.59028902520000   -1.48591319160000   -0.10821632180000
 C        -0.78276311700000   -1.26353067700000   -0.16079380200000
 C        -1.34440952760000    0.00029128930000   -0.04377796340000
 C        -2.83062885990000    0.07625582720000   -0.05374595580000
 O        -3.52708945160000   -0.66130722270000   -0.69420564130000
 O        -3.38169406110000    1.02038097380000    0.74135504590000
 C        -0.51517401070000    1.12791034430000    0.07541408880000
 N        -1.03991921790000    2.40878067800000    0.12555449260000
 C         0.87704647480000    0.93905393390000    0.16483771290000
 C         1.76290653160000    2.09314732060000    0.37608613860000
 C         2.90249323310000    2.30015151940000   -0.26590899410000
 C         1.38722710440000   -0.35101212970000    0.07906171760000
 F         2.72040124820000   -0.49331934600000    0.21298832120000
 H         2.55541789570000   -4.31944683340000   -0.43622990930000
 H         3.18322336350000   -2.60982242140000   -0.33393858120000
 H         0.28182475640000   -3.58714225840000   -0.26065388360000
 H        -1.45587873670000   -2.09786056090000   -0.28862558360000
 H        -2.71866885900000    1.48372447440000    1.27309040430000
 H        -1.91348158830000    2.54859905250000   -0.36080648580000
 H        -0.37087150460000    3.14194357000000   -0.05416748210000
 H         1.42801379140000    2.79995107730000    1.12680255950000
 H         3.26354716150000    1.62572466450000   -1.02322523730000
 H         3.51818678310000    3.15754192330000   -0.05468541650000
$end

$rem
 BASIS = 6-31G*
 GUI = 2
 METHOD = B3LYP
 PRINT_ORBITALS false
 MOLDEN_FORMAT false
$end