$molecule
0 1
 F        -5.81286621610000   -1.08432265760000   -1.29675329700000
 C        -4.95925989670000   -0.34158868000000   -0.59534449240000
 F        -5.64714213830000    0.52306404510000    0.13927256760000
 C        -3.64504893170000   -0.49273207090000   -0.66453978960000
 C        -2.61029122200000    0.24510854550000    0.04393939110000
 C        -1.28338946750000   -0.11114440070000   -0.19492578210000
 C        -0.24147904800000    0.54299293000000    0.44981773680000
 N         1.08256468110000    0.16170178550000    0.20400965310000
 C         1.57197184960000   -1.13027543680000    0.24314831150000
 C         2.95217933700000   -1.11591260350000   -0.06138653820000
 C         3.67500733410000   -2.30154496920000   -0.06750732780000
 C         3.01942248580000   -3.47751229200000    0.23745791040000
 C         1.66474631210000   -3.47860974190000    0.56179290960000
 C         0.92447764830000   -2.31175701100000    0.57426512320000
 C         2.12259661030000    1.01146345520000   -0.12238300120000
 C         3.30393235690000    0.25603736150000   -0.30038746710000
 C         4.48786198350000    0.89005755380000   -0.65331257380000
 C         4.47719513540000    2.25884068930000   -0.83209200430000
 C         3.30259955100000    2.99179461520000   -0.67876072150000
 C         2.11241296580000    2.38337391530000   -0.32809951000000
 C        -0.52347639660000    1.57650722120000    1.34017107390000
 C        -1.83756226730000    1.94173309890000    1.56831073470000
 C        -2.87733955130000    1.28640752080000    0.93482346780000
 H        -3.30869353190000   -1.26917288600000   -1.33665115800000
 H        -1.05587347990000   -0.89666119850000   -0.90024053850000
 H         4.72876193350000   -2.29760692840000   -0.30183349120000
 H         3.56219229250000   -4.41095494340000    0.23595670040000
 H         1.18247712830000   -4.41171956610000    0.81318403690000
 H        -0.12009630710000   -2.32174657470000    0.84743452560000
 H         5.39401799010000    0.31909010390000   -0.78839235180000
 H         5.38745088140000    2.77195479450000   -1.10441502290000
 H         3.32113799040000    4.05935960470000   -0.84127451690000
 H         1.20401535670000    2.95865921320000   -0.23060633890000
 H         0.28378385680000    2.07329596250000    1.85603870460000
 H        -2.05542807460000    2.74300636860000    2.25827102630000
 H        -3.89136146150000    1.58771996050000    1.13646691600000
$end

$rem
 BASIS = 6-31G*
 GUI = 2
 METHOD = B3LYP
 PRINT_ORBITALS false
 MOLDEN_FORMAT false
$end