$molecule
0 1
 C        -5.67214470740000   -0.86985369310000   -0.02581821840000
 C        -4.82292481460000    0.15164456360000   -0.00083694390000
 C        -3.36966587000000    0.07785743760000    0.00414249860000
 C        -2.63002583340000    1.26365162220000    0.01068974370000
 C        -1.25344239050000    1.24508325770000    0.01258307610000
 C        -0.54435694660000    0.03834659340000    0.00928394330000
 C         0.90183712600000    0.08413279000000    0.00875512490000
 C         1.73209323470000   -0.97315205070000    0.01319013210000
 C         3.17274191410000   -0.92482191260000    0.00960729700000
 C         3.95913138200000    0.14635279530000   -0.00538070100000
 F         3.59503606950000    1.42392702040000   -0.01993832500000
 F         5.28983604810000    0.07543592400000   -0.00841305970000
 C        -1.28642014740000   -1.14831268830000    0.00491479820000
 C        -2.66273853270000   -1.12790224410000    0.00227379440000
 H        -6.73679760930000   -0.71096180760000   -0.02834477090000
 H        -5.35092844580000   -1.89703786010000   -0.04554545830000
 H        -5.21993105470000    1.15975058130000    0.01603016300000
 H        -3.15104186750000    2.21094196610000    0.01313598570000
 H        -0.70588543830000    2.17698023100000    0.01672526760000
 H         1.31715287410000    1.08213878310000    0.00400745280000
 H         1.32951148710000   -1.97536493150000    0.02033211260000
 H         3.69586284660000   -1.86981954260000    0.01893522930000
 H        -0.77933263610000   -2.10093121720000    0.00273005310000
 H        -3.20020985590000   -2.06359967200000   -0.00084267060000
$end

$rem
 BASIS = 6-31G*
 GUI = 2
 METHOD = B3LYP
 PRINT_ORBITALS false
 MOLDEN_FORMAT false
$end