$molecule
0 1
 C         1.84956337350000    2.01028940940000    0.25750246360000
 C         1.92705252500000    0.76169059420000   -0.18381828520000
 C         0.86183248750000   -0.21936690810000   -0.11733212100000
 C         1.03572099490000   -1.57458984820000   -0.03866289470000
 O        -0.14154840480000   -2.21235447360000    0.05346143850000
 C        -1.09908251940000   -1.27213414920000    0.02635740840000
 C        -0.56195232650000   -0.01768052490000   -0.07972865880000
 C        -1.27842223830000    1.23508148540000   -0.21530417780000
 C        -2.50523934330000    1.45249539390000    0.23938699660000
 H         2.68627105400000    2.68392302090000    0.18393638920000
 H         0.96141366680000    2.39832528160000    0.72585598470000
 H         2.85469022250000    0.39280925560000   -0.60412294890000
 H         1.92518297190000   -2.17335972050000   -0.02045497750000
 H        -2.11671178170000   -1.60695814140000    0.05943776470000
 H        -0.74450555800000    2.01690230960000   -0.73924015950000
 H        -3.05155422530000    0.69929943610000    0.78132319800000
 H        -3.00244394910000    2.39606827520000    0.09453062790000
$end

$rem
 BASIS = 6-31G*
 GUI = 2
 METHOD = B3LYP
 PRINT_ORBITALS false
 MOLDEN_FORMAT false
$end