$molecule
0 1
 C        -2.68061344070000   -2.48131288060000    0.16036128390000
 C        -1.49961664990000   -1.87416533110000    0.14361165490000
 C        -1.35708635000000   -0.42865578890000   -0.00585238450000
 N        -2.47622049080000    0.28462515150000    0.08677983100000
 C        -2.42472242440000    1.59729617650000    0.02393464340000
 C        -1.23891814360000    2.30384717290000   -0.12562891560000
 C        -0.06692553470000    1.58201776860000   -0.25263681440000
 C        -0.10239238260000    0.18832481640000   -0.20540843220000
 C         1.10981348050000   -0.60129985530000   -0.39607333770000
 C         2.32785540050000   -0.24626156970000   -0.01919196170000
 F         2.67860641680000    0.85695780060000    0.63107971540000
 F         3.41027443890000   -0.99231854030000   -0.22689157650000
 H        -2.77065877700000   -3.54667613150000    0.28421115980000
 H        -3.58752431340000   -1.91259584530000    0.05079236610000
 H        -0.58963855230000   -2.44403225030000    0.26348493280000
 H        -3.37700076070000    2.10593944350000    0.10094726620000
 H        -1.23429918920000    3.38170025710000   -0.15743174840000
 H         0.87040822880000    2.09395611330000   -0.40923909480000
 H         1.02626143990000   -1.55639996630000   -0.89114379140000
$end

$rem
 BASIS = 6-31G*
 GUI = 2
 METHOD = B3LYP
 PRINT_ORBITALS false
 MOLDEN_FORMAT false
$end