$molecule
0 1
 C        -4.80284488420000   -1.75752000190000    0.10644072930000
 C        -3.50080311320000   -1.51911135510000    0.00944328260000
 C        -2.85108333150000   -0.21260417370000   -0.01077338000000
 C        -3.56372471110000    0.98861917870000   -0.02252881740000
 C        -2.89506398350000    2.19787050570000   -0.04169832970000
 C        -1.51397860870000    2.23537561430000   -0.04921491850000
 C        -0.76939404110000    1.05173190580000   -0.03841523580000
 C         0.67748682070000    1.13949455310000   -0.04749321440000
 C         1.54834218820000    0.11913014650000   -0.00889026350000
 C         2.97239493150000    0.31666095740000   -0.02145381370000
 C         3.85198716410000   -0.67773826940000    0.01845102420000
 F         3.55758907940000   -1.97326897290000    0.07459903230000
 F         5.17269235660000   -0.52106474290000    0.00775985590000
 C        -1.46000316140000   -0.15999398620000   -0.02161679420000
 H        -5.18726665440000   -2.76298284240000    0.11503615090000
 H        -5.53726309100000   -0.97431009570000    0.18350361550000
 H        -2.81973922630000   -2.35910219410000   -0.05686977970000
 H        -4.64215870510000    0.97806634110000   -0.02195772710000
 H        -3.45657531390000    3.12085483330000   -0.05200455190000
 H        -1.00092838180000    3.18629215670000   -0.06396441680000
 H         1.07305860710000    2.14756985060000   -0.08695557570000
 H         1.21363767470000   -0.90646276240000    0.03517847250000
 H         3.36194744610000    1.32195037480000   -0.06563735200000
 H        -0.90905657520000   -1.08848872150000   -0.01637654150000
$end

$rem
 BASIS = 6-31G*
 GUI = 2
 METHOD = B3LYP
 PRINT_ORBITALS false
 MOLDEN_FORMAT false
$end