$molecule
0 1
 C         3.64879335560000    1.21705889630000    0.29282476800000
 C         2.85014492070000    0.33396954550000   -0.28930496380000
 C         1.39528837890000    0.29603158010000   -0.11829813570000
 C         0.68527592810000    1.49314830810000   -0.06472719750000
 C        -0.68523733300000    1.49316623300000    0.06386251070000
 C        -1.39522210800000    0.29605904030000    0.11802421960000
 C        -2.84999567400000    0.33400357760000    0.28972675260000
 C        -3.64908383540000    1.21690730940000   -0.29204151880000
 C        -0.69646953860000   -0.91557916430000    0.04212359960000
 C        -1.44699553390000   -2.21818277850000    0.02406792920000
 C         0.69652234430000   -0.91559133100000   -0.04227108760000
 C         1.44700652110000   -2.21819458320000   -0.02410676060000
 H         4.71156780790000    1.22339159150000    0.11864077840000
 H         3.27387379610000    1.95692249370000    0.98056161200000
 H         3.27174442020000   -0.40796238020000   -0.95571137730000
 H         1.22095040010000    2.42801057970000   -0.13666668060000
 H        -1.22092046030000    2.42804740370000    0.13540987390000
 H        -3.27113456750000   -0.40775653610000    0.95658961970000
 H        -3.27470106810000    1.95664450290000   -0.98016736390000
 H        -4.71174572580000    1.22317989530000   -0.11713957090000
 H        -2.47347598730000   -2.06812167520000   -0.29783837820000
 H        -1.45893503680000   -2.67045167530000    1.01711966750000
 H        -0.97993391720000   -2.92128715340000   -0.66147898940000
 H         0.97944394850000   -2.92154720640000    0.66079258940000
 H         2.47321164850000   -2.06825320450000    0.29863625530000
 H         1.45972791140000   -2.67005501600000   -1.01731939190000
$end

$rem
 BASIS = 6-31G*
 GUI = 2
 METHOD = B3LYP
 PRINT_ORBITALS false
 MOLDEN_FORMAT false
$end