$molecule
0 1
 C        -4.19366895230000   -1.68218997080000    0.46128185600000
 C        -2.92502840210000   -1.95983254610000    0.17379006390000
 C        -1.88148958980000   -0.98471474320000    0.02047619950000
 C        -0.56467343110000   -1.21994989010000   -0.27739644490000
 C         0.23597845380000   -0.06339999110000   -0.35812672830000
 C         1.69232492360000   -0.14355837720000   -0.69037626000000
 C         2.53086257400000   -0.36058756860000    0.57607564790000
 C         4.03532665700000   -0.28154443710000    0.31923123370000
 C         4.55327453160000   -1.41181247250000   -0.56246833920000
 C        -0.48211354120000    1.08630783430000   -0.10974458080000
 C        -0.11726914970000    2.48016959030000   -0.09130618210000
 C         1.09598530350000    3.00555719160000    0.06032303890000
 S        -2.16025382870000    0.71863373970000    0.19876390250000
 H        -4.93375994590000   -2.45567335180000    0.56413249370000
 H        -4.52656714070000   -0.66699716900000    0.60219297160000
 H        -2.60581928950000   -2.98547713260000    0.03536712920000
 H        -0.17622060540000   -2.21062540980000   -0.44239323590000
 H         2.01029056710000    0.76950092860000   -1.19610731230000
 H         1.84537492730000   -0.98186123410000   -1.37247139030000
 H         2.28547382480000   -1.33620644430000    1.00196595350000
 H         2.25526781910000    0.39502330660000    1.31598758190000
 H         4.55245826090000   -0.31833154190000    1.28121741180000
 H         4.27385102630000    0.67806331340000   -0.14629334820000
 H         4.28781091010000   -2.37761205840000   -0.13754154340000
 H         5.63671470540000   -1.36031174990000   -0.64364979920000
 H         4.13692699160000   -1.34854115500000   -1.56453189590000
 H        -0.96391449120000    3.15011455740000   -0.18737124520000
 H         1.98032121250000    2.41575673590000    0.21341033470000
 H         1.23343783720000    4.07335895900000    0.05278584220000
$end

$rem
 BASIS = 6-31G*
 GUI = 2
 METHOD = B3LYP
 PRINT_ORBITALS false
 MOLDEN_FORMAT false
$end