$molecule
0 1
 C         2.42012233510000    2.65318250000000    0.06657336120000
 C         2.82177438480000    1.39443086120000   -0.05903530580000
 C         1.97812444410000    0.20387174530000   -0.03063429100000
 C         2.58589366430000   -1.05283901940000    0.00092787590000
 C         1.82268981860000   -2.20485283980000    0.03329671180000
 C         0.44371907860000   -2.12550608970000    0.02970886840000
 C        -0.19213258150000   -0.88155997080000   -0.00648177150000
 C        -1.64760977710000   -0.86094408250000   -0.01252427970000
 C        -2.46080882750000    0.18425687940000   -0.00270847220000
 F        -2.14185733520000    1.47350643410000    0.01521242330000
 F        -3.78884377610000    0.07220943980000   -0.00759862350000
 C         0.58698674240000    0.27188013030000   -0.03778978540000
 H         3.12254841710000    3.46841087700000    0.03714783380000
 H         1.38881715940000    2.92685837850000    0.20854029820000
 H         3.87854894700000    1.19070985080000   -0.18353613920000
 H         3.66425293730000   -1.12195148720000    0.00350003390000
 H         2.30531242750000   -3.17074414620000    0.05963055030000
 H        -0.14941397250000   -3.02777197450000    0.05344380230000
 H        -2.14138416410000   -1.82224236350000   -0.02181213450000
 H         0.11186618040000    1.23668825510000   -0.07797746170000
$end

$rem
 BASIS = 6-31G*
 GUI = 2
 METHOD = B3LYP
 PRINT_ORBITALS false
 MOLDEN_FORMAT false
$end