$molecule
0 1
 C         4.06587781480000   -2.06108733090000    0.08079514640000
 C         4.17201045060000   -0.73967916880000    0.02746656020000
 C         3.02628244700000    0.16421087930000   -0.00746522740000
 C         3.22007917610000    1.54869573040000   -0.04965930040000
 C         2.11292088240000    2.37858430190000   -0.07886665400000
 C         0.85132313120000    1.81252200970000   -0.06571762070000
 C         0.74843466290000    0.42001384370000   -0.02476604360000
 C        -0.57089680440000   -0.23087074170000   -0.01104114830000
 C        -0.67893219270000   -1.62265375890000   -0.00847392460000
 C        -1.94339400000000   -2.18327661280000    0.00320090620000
 C        -3.05008989260000   -1.35292796400000    0.01427388000000
 C        -2.85333290410000    0.03138810280000    0.01257625150000
 C        -3.93974492280000    1.00661617940000    0.02568398280000
 C        -5.23935000740000    0.74332186310000    0.06838750320000
 N        -1.63397925410000    0.56349314240000   -0.00189318240000
 N         1.81066678510000   -0.37398785740000    0.00319852560000
 H         4.92869749470000   -2.70422483780000    0.10640234780000
 H         3.09716965910000   -2.52904527130000    0.10074459890000
 H         5.14245249350000   -0.26074078790000    0.00850309660000
 H         4.22014579300000    1.95597187490000   -0.05846459760000
 H         2.23369530000000    3.45241191940000   -0.11129090500000
 H        -0.04769595810000    2.40559369590000   -0.08624200880000
 H         0.21687828860000   -2.22053659290000   -0.01686351670000
 H        -2.06722223150000   -3.25730922980000    0.00351849110000
 H        -4.04528955490000   -1.76739103590000    0.02252491560000
 H        -3.59255972110000    2.03072356160000    0.00054994070000
 H        -5.63283807220000   -0.25867457300000    0.09810083330000
 H        -5.96965176510000    1.53431552700000    0.07651360690000
$end

$rem
 BASIS = 6-31G*
 GUI = 2
 METHOD = B3LYP
 PRINT_ORBITALS false
 MOLDEN_FORMAT false
$end