$molecule
0 1
 C        -4.51617409490000   -1.06997871640000    0.00710329370000
 C        -3.72626961660000    0.00139321980000    0.00184264610000
 C        -2.28876731780000   -0.02402746480000   -0.00086874450000
 C        -1.43156725070000   -1.09578177520000   -0.00174564990000
 C        -0.09048641780000   -0.69152680220000   -0.00257696170000
 S         1.43045890140000   -1.50797975200000   -0.00222354910000
 C         2.28877057120000    0.02401791520000   -0.00090693630000
 C         3.72627417310000   -0.00137829710000    0.00177566340000
 C         4.51614908280000    1.07001351030000    0.00732207640000
 C         1.43156694280000    1.09577083170000   -0.00154568540000
 C         0.09048869680000    0.69151463440000   -0.00243101930000
 S        -1.43045177720000    1.50796994130000   -0.00186736540000
 H        -5.58719994000000   -0.97273198780000    0.00936517240000
 H        -4.12449050260000   -2.07215245080000    0.00953717730000
 H        -4.16254506160000    0.99194874190000   -0.00000005410000
 H        -1.75116420720000   -2.12081390130000   -0.00168609590000
 H         4.16257409160000   -0.99192010920000   -0.00032685910000
 H         4.12443444920000    2.07217640290000    0.01004407140000
 H         5.58717896730000    0.97280042020000    0.00951436820000
 H         1.75116709850000    2.12080170110000   -0.00128270800000
$end

$rem
 BASIS = 6-31G*
 GUI = 2
 METHOD = B3LYP
 PRINT_ORBITALS false
 MOLDEN_FORMAT false
$end