$molecule
0 1
 C        -3.72322134590000    0.79626653130000   -0.00307915210000
 C        -2.92322014140000   -0.26296859610000   -0.00161276430000
 C        -1.47068142290000   -0.16773195420000    0.00069520500000
 C        -0.66847406490000   -1.31785553600000   -0.00040974810000
 C         0.70406988700000   -1.17652547480000    0.00044979750000
 C         1.60552547860000   -2.36944311130000   -0.00339914290000
 C         1.19139568900000    0.15154800610000    0.00387295740000
 C         2.61633891170000    0.45930046110000    0.00608625710000
 C         3.08713467050000    1.70100699390000   -0.00958625220000
 N         0.35886314350000    1.19080527100000    0.00535087750000
 N        -0.91981150330000    1.04621008050000    0.00326706300000
 H        -4.79542300940000    0.70086543670000   -0.00515736420000
 H        -3.30776002730000    1.78903413860000   -0.00212728720000
 H        -3.32394877950000   -1.26898342200000   -0.00249880800000
 H        -1.12495797700000   -2.29875241870000   -0.00263544770000
 H         1.01952873300000   -3.28597540350000   -0.01138798050000
 H         2.24083942520000   -2.37118963660000    0.88165160180000
 H         2.24802917390000   -2.36003928580000   -0.88313722580000
 H         3.29176097780000   -0.38409400630000    0.02106177590000
 H         2.41216490450000    2.53885483600000   -0.02495721660000
 H         4.14363194980000    1.90771667590000   -0.00736129570000
$end

$rem
 BASIS = 6-31G*
 GUI = 2
 METHOD = B3LYP
 PRINT_ORBITALS false
 MOLDEN_FORMAT false
$end