$molecule
0 1
 C        -4.14995901660000    1.21163592730000    0.08768715850000
 C        -3.37040822770000    0.13957143460000    0.00937754010000
 C        -1.91565805650000    0.20965987250000    0.04847317760000
 C        -1.14724051780000   -0.95258458140000   -0.03218565980000
 C         0.24127559500000   -0.88000990720000    0.00968472180000
 C         1.04797477970000   -2.10579541450000    0.00185784430000
 C         0.77001295360000   -3.17020477720000   -0.73861399790000
 C         0.81617297070000    0.39726909080000    0.12057912640000
 C         2.27851797400000    0.67180779850000    0.12652255850000
 O         2.76965317200000    1.57109229340000    0.75045883040000
 O         3.04164690610000   -0.12136122650000   -0.65331912650000
 C        -0.04414339230000    1.49517667100000    0.21459340050000
 N        -1.35173675640000    1.41380669220000    0.17714726690000
 H        -5.22340137560000    1.14021538800000    0.05763776560000
 H        -3.71575285940000    2.19155529370000    0.18608416820000
 H        -3.78992070080000   -0.85297657520000   -0.08896772310000
 H        -1.63045341780000   -1.91613990260000   -0.09144015140000
 H         1.90631040410000   -2.11081009980000    0.66291579380000
 H        -0.06482141550000   -3.18844503760000   -1.42012351870000
 H         1.37804944270000   -4.05743132940000   -0.70270510370000
 H         2.52704321720000   -0.79996293930000   -1.11301741140000
 H         0.37574461820000    2.48705147050000    0.31747035520000
$end

$rem
 BASIS = 6-31G*
 GUI = 2
 METHOD = B3LYP
 PRINT_ORBITALS false
 MOLDEN_FORMAT false
$end