$molecule
0 1
 C         3.78848166630000   -0.04446219020000   -0.00067271180000
 C         2.67329942430000    0.68239179990000    0.00018584860000
 C         1.33615055190000    0.15409674720000    0.00035262430000
 C         0.89826554470000   -1.14664095580000    0.00041921400000
 C        -0.50030518660000   -1.28180397250000    0.00015862650000
 C        -1.19681737020000   -2.60490134480000    0.00006159070000
 C        -1.15049946340000   -0.06414289590000   -0.00007801360000
 C        -2.56758350940000    0.16770151050000   -0.00060787590000
 C        -3.14531990900000    1.36658056160000    0.00004800610000
 S        -0.01175987230000    1.24981433340000    0.00010398480000
 H         4.75836980040000    0.42043385120000   -0.00077708010000
 H         3.77183296580000   -1.12045980140000   -0.00130893540000
 H         2.73610888640000    1.76303404760000    0.00068860640000
 H         1.56595450790000   -1.98974722050000    0.00062721170000
 H        -0.46723036160000   -3.41047915790000    0.00162056080000
 H        -1.82658817090000   -2.70954838490000   -0.88291480680000
 H        -1.82912950730000   -2.70836558430000    0.88134270590000
 H        -3.17644281630000   -0.72696841930000   -0.00162440160000
 H        -2.56068427780000    2.27175878390000    0.00102016610000
 H        -4.21490544790000    1.47912285640000   -0.00040038870000
$end

$rem
 BASIS = 6-31G*
 GUI = 2
 METHOD = B3LYP
 PRINT_ORBITALS false
 MOLDEN_FORMAT false
$end