$molecule
0 1
 C         4.00943639350000    2.37725665070000   -0.16816383600000
 C         3.60735983590000    1.11759863280000   -0.02870860720000
 C         2.23291810520000    0.68835188510000   -0.04033802330000
 C         1.04823302550000    1.36554235090000   -0.18282203880000
 C         0.01739915580000    0.39691386350000   -0.11021884320000
 C        -1.40489261640000    0.73321071300000   -0.21944036390000
 O        -1.81549207690000    1.86154520030000   -0.34900319080000
 O        -2.20313661370000   -0.34430286110000   -0.15829273290000
 C        -3.61186958700000   -0.12230486270000   -0.23247606070000
 C        -4.31843425360000   -1.13147241260000    0.65592615470000
 C         0.65134869450000   -0.82727311420000    0.07558418360000
 C         0.12102150770000   -2.15624152700000    0.22260151730000
 C         0.88015405490000   -3.23707918550000    0.39359042360000
 O         1.98131810540000   -0.63537063730000    0.11520007670000
 H         5.05291998980000    2.63665727450000   -0.15127009940000
 H         3.31089242350000    3.18423426210000   -0.30279472140000
 H         4.32369227660000    0.31839345220000    0.10617118170000
 H         0.90229682290000    2.41583815720000   -0.32270824920000
 H        -3.92006358840000   -0.23886332920000   -1.27775357280000
 H        -3.82278459990000    0.90548872460000    0.08162657920000
 H        -4.08925456600000   -2.14341061730000    0.33199225400000
 H        -5.39203607480000   -0.97642344980000    0.59983474640000
 H        -3.99674085470000   -1.01494368720000    1.68773540760000
 H        -0.95479654600000   -2.22065331930000    0.18378174790000
 H         1.95419766620000   -3.16893833910000    0.43084708940000
 H         0.44861897590000   -4.21638257040000    0.50064294690000
$end

$rem
 BASIS = 6-31G*
 GUI = 2
 METHOD = B3LYP
 PRINT_ORBITALS false
 MOLDEN_FORMAT false
$end