$molecule
0 1
 C        -5.43640288080000    1.90770156920000   -0.61722740670000
 C        -4.77887853270000    0.77521078860000   -0.39514387000000
 C        -3.33854551910000    0.58086966420000   -0.29358973040000
 C        -2.85455453790000   -0.69244230800000    0.01792776730000
 C        -1.50812464450000   -0.99627068620000    0.13942162830000
 C        -1.03063181100000   -2.33746060390000    0.45865902580000
 C        -1.74296675890000   -3.30718501920000    1.01834520440000
 C        -0.56353234650000    0.03205833230000   -0.07560628520000
 O         0.74078220480000   -0.30557238220000    0.05260417820000
 C         1.73373769590000    0.68010284200000   -0.14820492090000
 C         3.08459454910000    0.05269241680000    0.07774682670000
 C         4.16447292010000    0.39482079610000   -0.72411636020000
 C         5.40805806340000   -0.16890770630000   -0.49837478270000
 C         5.57987548530000   -1.08590308150000    0.52427554030000
 C         4.50423996110000   -1.43440940730000    1.32344378300000
 C         3.26298798040000   -0.86444053270000    1.10508363030000
 C        -1.01309357680000    1.30741834990000   -0.38793712190000
 C        -2.36850706770000    1.56225362320000   -0.48903094260000
 F        -2.71010994910000    2.83154168030000   -0.80246010640000
 H        -6.51229188670000    1.91572517690000   -0.66752698530000
 H        -4.95140366980000    2.85661164970000   -0.75453263320000
 H        -5.34581846350000   -0.13873298640000   -0.26180149460000
 H        -3.57371633290000   -1.48475065340000    0.15846461650000
 H         0.01031519100000   -2.50788000230000    0.22017300460000
 H        -2.77214205060000   -3.18104974750000    1.30904808330000
 H        -1.31105243230000   -4.27239948220000    1.21912195660000
 H         1.59111640400000    1.50728120550000    0.56555425240000
 H         1.67140265480000    1.08601815010000   -1.16711778000000
 H         4.03287828350000    1.10589311630000   -1.52733028390000
 H         6.24301750030000    0.10472625380000   -1.12639296260000
 H         6.54945927000000   -1.52914344880000    0.69646980240000
 H         4.63290369710000   -2.15059626600000    2.12156014790000
 H         2.42093676230000   -1.13404618490000    1.72414328220000
 H        -0.33536752660000    2.12776803250000   -0.56086328570000
$end

$rem
 BASIS = 6-31G*
 GUI = 2
 METHOD = B3LYP
 PRINT_ORBITALS false
 MOLDEN_FORMAT false
$end