$molecule
0 1
 C         4.56074597210000    1.34148355350000   -0.00481051520000
 C         3.34295634720000    1.87596162600000    0.00411327280000
 C         2.12228170690000    1.11193539780000   -0.00298418310000
 C         0.81716188180000    1.53047107060000    0.00196328500000
 C         0.00877784090000    0.36531104780000   -0.02034238700000
 C        -1.45469546970000    0.48493872650000   -0.04834479170000
 O        -2.03356640750000    1.49495685100000    0.27332395030000
 O        -2.08107185910000   -0.60608221510000   -0.51159295010000
 C        -3.50535012730000   -0.54312534700000   -0.59015811620000
 C        -4.15535403880000   -0.85140306820000    0.75154309800000
 C         0.89143760970000   -0.71118853040000   -0.02361787960000
 C         0.80327313060000   -2.14894034630000    0.01858759060000
 C        -0.28407245810000   -2.90396532260000    0.14092164020000
 O         2.15636057760000   -0.23944645320000   -0.01514562780000
 H         5.44571831480000    1.95241537650000    0.00131694030000
 H         4.70242756080000    0.27431291920000   -0.01837387150000
 H         3.19926795890000    2.94694185360000    0.01796393230000
 H         0.45198224830000    2.53658185150000    0.01199831420000
 H        -3.77899259320000   -1.28563938340000   -1.34288091310000
 H        -3.79715071920000    0.45679831420000   -0.92760744630000
 H        -3.84591409270000   -1.83101784640000    1.10900338670000
 H        -5.23606440050000   -0.83916421350000    0.64293879420000
 H        -3.86655002710000   -0.10060662960000    1.48294790200000
 H         1.77997921860000   -2.61501224540000   -0.03533470920000
 H        -1.26907670920000   -2.48303466980000    0.19933317200000
 H        -0.20421935150000   -3.97663250000000    0.17780774890000
$end

$rem
 BASIS = 6-31G*
 GUI = 2
 METHOD = B3LYP
 PRINT_ORBITALS false
 MOLDEN_FORMAT false
$end