$molecule
0 1
 C        -4.46638465390000   -2.44945223560000   -0.49992766560000
 C        -3.29902679790000   -2.34056439040000    0.12824067150000
 C        -2.48144400550000   -1.15968914590000    0.15041330010000
 C        -1.27856198740000   -0.99606629680000    0.78630561410000
 C        -0.69813360170000    0.27804288880000    0.62858632830000
 C         0.60618666640000    0.62731647480000    1.27213629970000
 C         1.78873617080000    0.22949501750000    0.38014823790000
 C         3.12169732580000    0.63703708850000    1.00272219660000
 C         4.32438360570000    0.34054412090000    0.10646857600000
 C         4.59974904970000   -1.15128933640000   -0.06994383200000
 C         5.87215919910000   -1.39407327720000   -0.87262078560000
 C        -1.47021521190000    1.10979911620000   -0.15330698240000
 C        -1.31067493180000    2.47730387630000   -0.57831773940000
 C        -0.18964845630000    3.19252864370000   -0.63125999900000
 S        -2.93069656790000    0.30361347640000   -0.66673149300000
 H        -5.03701087330000   -3.36082840930000   -0.48161735160000
 H        -4.88395349230000   -1.62375955240000   -1.05230537750000
 H        -2.89238252600000   -3.17939477840000    0.67958108330000
 H        -0.81852950940000   -1.77833939190000    1.36590177250000
 H         0.68562317220000    0.09092461430000    2.22104228000000
 H         0.64160870510000    1.69650641750000    1.48695967210000
 H         1.68158693750000    0.70283256660000   -0.59868822490000
 H         1.76165560280000   -0.85043130340000    0.22673891030000
 H         3.24774736120000    0.12158813280000    1.95803886960000
 H         3.09776043270000    1.71033299560000    1.21073852170000
 H         5.20931850780000    0.80753160580000    0.54651499670000
 H         4.16528409390000    0.79630799060000   -0.87386519610000
 H         3.76044296970000   -1.62438467820000   -0.58220715210000
 H         4.69741907880000   -1.61750248440000    0.91338003410000
 H         5.79044607830000   -0.94580577480000   -1.86051367710000
 H         6.05215400720000   -2.45979588510000   -0.99353994710000
 H         6.73150042290000   -0.95599239540000   -0.36921582390000
 H        -2.23381361130000    2.93575222170000   -0.91365373360000
 H         0.77437177550000    2.80107849570000   -0.36565542590000
 H        -0.20982178640000    4.21482733130000   -0.96833872950000
$end

$rem
 BASIS = 6-31G*
 GUI = 2
 METHOD = B3LYP
 PRINT_ORBITALS false
 MOLDEN_FORMAT false
$end