$molecule
0 1
 C            0.19148632010000       -3.78383057650000       -0.32263040920000
 C            0.94480269670000       -2.85146737460000        0.24391427120000
 C            0.70262415910000       -1.41216584340000        0.13143699480000
 C           -0.58913629450000       -0.94301555810000        0.11879037190000
 C           -0.89617158640000        0.43164977920000        0.05027241240000
 C           -2.25078063380000        0.95626606260000        0.03661823060000
 C           -3.39044591620000        0.28228952570000       -0.00242585620000
 F           -3.56409313470000       -1.03403658810000       -0.03896400050000
 F           -4.58243016310000        0.87293535170000       -0.01479110920000
 C            0.16382726030000        1.31531412820000        0.00895994580000
 F           -0.08519846320000        2.64376764190000       -0.04047745460000
 C            1.50918067640000        0.90106535380000        0.00935899470000
 C            2.56884909090000        1.83104761360000       -0.05321755150000
 C            3.86544359200000        1.40186549350000       -0.07703990960000
 C            4.15005223280000        0.02976775750000       -0.04760237930000
 C            3.13976273280000       -0.89150611530000        0.01762794990000
 C            1.78926827590000       -0.49113528430000        0.06273189510000
 H            0.40025707100000       -4.83207572440000       -0.19538875780000
 H           -0.64976422380000       -3.53712583920000       -0.94828025720000
 H            1.79672905370000       -3.14527563940000        0.84210167590000
 H           -1.39543718950000       -1.65294273210000        0.19136992520000
 H           -2.34912394100000        2.03229591950000        0.05047654320000
 H            2.33210509240000        2.88378437110000       -0.08713976650000
 H            4.67495094860000        2.11443597510000       -0.12562610760000
 H            5.17831449150000       -0.29879631290000       -0.08067342080000
 H            3.37986733840000       -1.94307427680000        0.02255561730000
$end

$rem
 BASIS = 6-31G*
 GUI = 2
 METHOD = B3LYP
 PRINT_ORBITALS false
 MOLDEN_FORMAT false
$end