$molecule
0 1
 C         3.86525082180000   -1.75552989600000    0.13870379820000
 C         3.51397822020000   -0.47953324910000    0.03081764110000
 C         2.15535832750000    0.04072301220000   -0.02536392290000
 C         1.01062837080000   -0.76189952870000    0.00732552060000
 C        -0.23299221220000   -0.15814614180000   -0.04199093450000
 C        -1.47147069670000   -1.01299592200000    0.01696504440000
 F        -1.19986377490000   -2.30832384890000    0.23008580350000
 F        -2.31173510170000   -0.64138035240000    0.99865514610000
 F        -2.18386755770000   -0.96779947320000   -1.12590056010000
 C        -0.33962977160000    1.23805853920000   -0.12652916670000
 C        -1.61933105640000    1.93208983890000   -0.18644532210000
 C        -1.82306062750000    3.15551371050000    0.28620210670000
 C         0.87709358570000    1.93249318780000   -0.16887791460000
 N         2.05864274150000    1.36822373690000   -0.11702060620000
 H         4.90104929130000   -2.04565067950000    0.17344337630000
 H         3.14993289440000   -2.55825522260000    0.19756731620000
 H         4.26698801790000    0.29451039310000   -0.02241751720000
 H         1.08934496180000   -1.83431147950000    0.07549666950000
 H        -2.43958753310000    1.39214990390000   -0.63860058830000
 H        -1.04872000530000    3.71831013710000    0.77956635670000
 H        -2.78752514470000    3.62691185490000    0.21592729720000
 H         0.87999147780000    3.00935253010000   -0.26868149840000
$end

$rem
 BASIS = 6-31G*
 GUI = 2
 METHOD = B3LYP
 PRINT_ORBITALS false
 MOLDEN_FORMAT false
$end