$molecule
0 1
 C        -3.67801132270000    1.09803840870000   -0.02770679670000
 C        -2.88259503100000    0.03469473850000    0.00050146100000
 C        -1.42767700530000    0.04996442730000    0.00280766350000
 C        -0.66260897590000    1.21688046190000    0.00295760900000
 C         0.71270989320000    1.15314377760000    0.00643657010000
 F         1.39373010220000    2.32028587110000    0.00684386280000
 C         1.42768306000000   -0.05001176050000    0.00829883730000
 C         2.88261469340000   -0.03489661820000    0.01162968940000
 C         3.67781037260000   -1.09761189180000   -0.03787389210000
 C         0.66265125570000   -1.21693073770000    0.00940695960000
 C        -0.71267787640000   -1.15318964370000    0.00707996110000
 F        -1.39364160860000   -2.32036413260000    0.00922075840000
 H        -4.74846311750000    0.98944065470000   -0.02721903490000
 H        -3.30636042110000    2.10784444120000   -0.05331138070000
 H        -3.32182820770000   -0.95381524230000    0.02201660380000
 H        -1.13473247070000    2.18543191960000    0.00209590130000
 H         3.32192623340000    0.95288205970000    0.05480769410000
 H         3.30584640390000   -2.10636380440000   -0.08863654770000
 H         4.74829132610000   -0.98947826090000   -0.03145284610000
 H         1.13485503960000   -2.18543377650000    0.01506426580000
$end

$rem
 BASIS = 6-31G*
 GUI = 2
 METHOD = B3LYP
 PRINT_ORBITALS false
 MOLDEN_FORMAT false
$end