$molecule
0 1
 C        -4.09143549510000   -2.96228909510000   -0.48775432700000
 C        -4.05641337180000   -1.63187420310000   -0.49529467190000
 C        -2.89835767700000   -0.82983027060000   -0.20513285870000
 C        -1.62498845530000   -1.20378381560000    0.13813947430000
 C        -0.73512122680000   -0.13226663370000    0.34530270730000
 C         0.68923384370000   -0.37030288020000    0.73646058320000
 C         1.56849069100000   -0.57013111270000   -0.50458683040000
 C         3.02871332350000   -0.87343905430000   -0.16829247620000
 C         3.77547082580000    0.32391268980000    0.41689765820000
 C         5.23820275060000    0.01680848940000    0.74239970280000
 C         6.10205860560000   -0.18814726270000   -0.49668116660000
 C        -1.33387959230000    1.09503000070000    0.15117486210000
 C        -0.85170348410000    2.44855198190000    0.25685139160000
 C         0.40905353960000    2.87434803400000    0.23628314030000
 S        -3.01552156940000    0.90023837800000   -0.26705112990000
 H        -4.99557537650000   -3.49880133160000   -0.71463516280000
 H        -3.22523752350000   -3.55729480290000   -0.25603851720000
 H        -4.95120283750000   -1.07166353910000   -0.73447000840000
 H        -1.32629203500000   -2.23127115610000    0.24851597380000
 H         0.73852956850000   -1.27382923570000    1.34941093950000
 H         1.05105112400000    0.46492991320000    1.33529940830000
 H         1.51515833130000    0.31891649230000   -1.13707155360000
 H         1.15835558430000   -1.40266373200000   -1.08188967130000
 H         3.52843722170000   -1.19200736260000   -1.08478312420000
 H         3.07105014470000   -1.70504501300000    0.53954501410000
 H         3.28100646280000    0.64253763540000    1.33699765400000
 H         3.73494478230000    1.15601995880000   -0.29075074490000
 H         5.28684036570000   -0.87518520600000    1.37130128470000
 H         5.64746472610000    0.84936944050000    1.31990091080000
 H         5.78525925680000   -1.06418721920000   -1.05651690930000
 H         7.14227476240000   -0.32849260340000   -0.21149966410000
 H         6.04057047700000    0.67936908480000   -1.15047272720000
 H        -1.64454756980000    3.18361738690000    0.33512262130000
 H         1.25225482770000    2.22093125840000    0.11438955010000
 H         0.63157220240000    3.92371494340000    0.32834471490000
$end

$rem
 BASIS = 6-31G*
 GUI = 2
 METHOD = B3LYP
 PRINT_ORBITALS false
 MOLDEN_FORMAT false
$end