$molecule
0 1
 C         3.89475285290000   -0.23869384370000   -0.12556988710000
 C         2.80532767940000    0.49127515310000    0.07827213550000
 C         1.42938436470000    0.01199958250000    0.04600033080000
 C         1.08606851730000   -1.34052644860000   -0.01522009540000
 N        -0.16220344170000   -1.76805855680000   -0.04425123650000
 C        -1.12379679990000   -0.88042949470000   -0.01352950220000
 F        -2.36792874190000   -1.38343995420000   -0.05275326370000
 C        -0.94820801850000    0.50833223240000    0.05484992230000
 C        -2.10054519200000    1.39896486420000    0.09291017950000
 C        -2.06611811450000    2.71582791900000   -0.06786833820000
 C         0.37823521930000    0.92946126530000    0.08993556840000
 H         4.87606258020000    0.20170769670000   -0.08684127760000
 H         3.85691420210000   -1.29181342290000   -0.34381441900000
 H         2.90744839110000    1.55126531520000    0.27745918640000
 H         1.83428420970000   -2.11888880630000   -0.02966406030000
 H        -3.04942292810000    0.90317346930000    0.24915001860000
 H        -1.15379430470000    3.25802272580000   -0.25026709840000
 H        -2.96601535180000    3.30448840740000   -0.03133429900000
 H         0.60064498370000    1.98420488470000    0.15889767280000
$end

$rem
 BASIS = 6-31G*
 GUI = 2
 METHOD = B3LYP
 PRINT_ORBITALS false
 MOLDEN_FORMAT false
$end