$molecule
0 1
 C        -4.33120122100000    0.91547648980000   -0.37219746900000
 C        -3.36876448790000    1.28906716820000    0.46060620260000
 C        -1.96955133340000    0.87181666020000    0.38423174090000
 C        -0.99308002400000    1.81725159100000    0.69868290170000
 C         0.35562567280000    1.53344751960000    0.58486955190000
 C         0.73428579710000    0.27180600120000    0.16867730640000
 S         2.44242283080000   -0.25076657560000   -0.04199773430000
 C         3.49816301630000    1.14115898750000    0.46584422830000
 O         2.68517168040000   -1.34686118560000    0.85708188420000
 O         2.65830556960000   -0.48656341660000   -1.44465721440000
 C        -0.20951799440000   -0.69212066010000   -0.11305713350000
 C        -1.57276779390000   -0.41910969390000   -0.01358378920000
 C        -2.54299717530000   -1.48642542960000   -0.24965501450000
 C        -2.38804522930000   -2.45983923980000   -1.13675182140000
 H        -5.33651792320000    1.28811602310000   -0.27141009110000
 H        -4.14625701090000    0.24889521820000   -1.19736168780000
 H        -3.58699356810000    2.00854684310000    1.24074082010000
 H        -1.30407391070000    2.80135444780000    1.01911759530000
 H         1.08818461180000    2.28791708780000    0.82203041600000
 H         3.29604635340000    1.36974016550000    1.50387983970000
 H         3.30452483740000    1.98173265500000   -0.18720489910000
 H         4.52009038490000    0.80194192690000    0.34791418920000
 H         0.13453509250000   -1.67528849240000   -0.39252465050000
 H        -3.43333521620000   -1.44916488670000    0.36524728700000
 H        -1.53442798260000   -2.50537837220000   -1.79188489990000
 H        -3.12344471730000   -3.23708168820000   -1.25451046870000
$end

$rem
 BASIS = 6-31G*
 GUI = 2
 METHOD = B3LYP
 PRINT_ORBITALS false
 MOLDEN_FORMAT false
$end