$molecule
0 1
 C        -3.03501314220000    1.65659244730000   -0.09462268220000
 C        -2.67124799530000    0.38859115070000    0.05150104980000
 C        -1.30985379170000   -0.13594556320000    0.03382877960000
 C        -1.11980195260000   -1.51824893400000   -0.00660768240000
 C         0.15486263510000   -2.05295993810000   -0.02937560740000
 C         1.26196908690000   -1.22683462180000   -0.00909554540000
 C         1.10625133430000    0.15984239890000    0.03686362260000
 C         2.23603739670000    1.08280222840000    0.06506831290000
 C         3.51756606700000    0.77429646160000   -0.09051964760000
 C        -0.18425160470000    0.68298822520000    0.06197386050000
 H        -4.07124224810000    1.94789121980000   -0.07278243550000
 H        -2.32695030630000    2.45290066820000   -0.24809747030000
 H        -3.43933376950000   -0.36415580530000    0.18458000140000
 H        -1.97920576780000   -2.17361249710000   -0.02301910760000
 H         0.28618974430000   -3.12517219480000   -0.06019962510000
 H         2.24954792620000   -1.66071890740000   -0.01817371040000
 H         1.96378053700000    2.12029815210000    0.21972156670000
 H         3.85953606410000   -0.23211519320000   -0.26101872890000
 H         4.28315136930000    1.53059720200000   -0.05762243450000
 H        -0.30730517950000    1.75489733570000    0.11001934170000
$end

$rem
 BASIS = 6-31G*
 GUI = 2
 METHOD = B3LYP
 PRINT_ORBITALS false
 MOLDEN_FORMAT false
$end