$molecule
0 1
 C        -5.67005772000000   -0.82993385980000    0.04845313860000
 C        -4.38822249450000   -1.16815597710000   -0.01594505940000
 C        -3.24485418550000   -0.26197823230000   -0.01259654570000
 C        -3.37468732560000    1.12796444580000   -0.00962735620000
 C        -2.25196693070000    1.93499248020000   -0.00539755840000
 C        -0.98435923430000    1.38568551040000   -0.00388815990000
 C        -0.81812852240000   -0.00221599260000   -0.00843949590000
 C         0.48017280120000   -0.64671179980000   -0.00834986400000
 C         1.67862176210000   -0.04274911780000   -0.00173276460000
 C         2.91485085980000   -0.77676814410000   -0.00179083890000
 C         4.11125162390000   -0.20004908140000    0.00469923810000
 F         4.34227098930000    1.10937090260000    0.01191714520000
 F         5.26796249830000   -0.85648973190000    0.00470191670000
 C        -1.96164192870000   -0.80207711560000   -0.01407899890000
 H        -6.44581854000000   -1.57626706210000    0.04159167510000
 H        -6.00290579950000    0.19166251680000    0.11294799310000
 H        -4.12719370560000   -2.21823253230000   -0.07240592240000
 H        -4.35350058460000    1.58079345680000   -0.01412910290000
 H        -2.36733367510000    3.00926356580000   -0.00387560810000
 H        -0.12446605630000    2.03648559360000   -0.00047887460000
 H         0.45368215350000   -1.73001644990000   -0.01391596110000
 H         1.76691795110000    1.03334535550000    0.00416968790000
 H         2.88430135360000   -1.85536066530000   -0.00739590480000
 H        -1.84660116550000   -1.87783813850000   -0.01782335710000
$end

$rem
 BASIS = 6-31G*
 GUI = 2
 METHOD = B3LYP
 PRINT_ORBITALS false
 MOLDEN_FORMAT false
$end