$molecule
0 1
 C           -3.94730732890000        1.38624038410000        0.28869606760000
 C           -3.44991302180000        0.33976649390000       -0.35305945560000
 C           -2.11705424240000       -0.23812563650000       -0.13878718260000
 C           -2.05015204470000       -1.62355493250000        0.01118150760000
 C           -0.85040437090000       -2.25478289770000        0.26835951730000
 C            0.30721630860000       -1.50765821230000        0.37027208360000
 C            0.27161619340000       -0.12704526740000        0.19114207820000
 C            1.49615711210000        0.66280247190000        0.31706860500000
 C            2.71779881250000        0.26288986570000        0.00721240590000
 F            3.08035426760000       -0.90198475960000       -0.51833007340000
 F            3.80300399550000        1.02170757830000        0.16623387880000
 C           -0.94445068640000        0.52099266890000       -0.07683554100000
 C           -0.94797596760000        1.99413649120000       -0.36341054670000
 H           -4.95220688050000        1.73102001260000        0.11186260510000
 H           -3.38288896220000        1.92357751000000        1.03175951410000
 H           -4.07300218710000       -0.20384295570000       -1.05330887640000
 H           -2.96063342140000       -2.20127037040000       -0.05854647880000
 H           -0.81541024730000       -3.32623016790000        0.39477347030000
 H            1.24162471190000       -1.99614368020000        0.59625361250000
 H            1.41603558820000        1.66718118800000        0.70384436030000
 H           -0.11700638580000        2.25346438500000       -1.01689581560000
 H           -0.84785742380000        2.57000240690000        0.55712660980000
 H           -1.87387319860000        2.28900680250000       -0.84872271920000
$end

$rem
 BASIS = 6-31G*
 GUI = 2
 METHOD = B3LYP
 PRINT_ORBITALS false
 MOLDEN_FORMAT false
$end