$molecule
0 1
 C        -1.47342746140000   -2.85095287010000   -0.28296986990000
 C        -2.21049367550000   -1.78528131090000    0.00781930040000
 C        -1.74873982560000   -0.41688280150000    0.03531372210000
 C        -2.54653175000000    0.73133988610000   -0.11751007300000
 N        -1.81830245130000    1.82704632030000   -0.06688462720000
 N        -0.56065255160000    1.44383967620000    0.10684973610000
 C         0.45441351020000    2.44259033870000    0.27793488400000
 C        -0.45118724980000    0.09178657820000    0.17850366630000
 C         0.75748299820000   -0.64512485840000    0.45900360820000
 C         1.98240281800000   -0.39750072420000    0.02056787400000
 F         2.36370158900000    0.56957164510000   -0.80889094240000
 F         3.04276159140000   -1.13158978000000    0.35167187910000
 H        -1.89734758740000   -3.84030488230000   -0.28438529820000
 H        -0.43444041350000   -2.77686545640000   -0.55497644140000
 H        -3.26557712940000   -1.90370336890000    0.22138709690000
 H        -3.60644025090000    0.78762253500000   -0.26448983270000
 H        -0.04740746520000    3.37561741430000    0.52707624900000
 H         1.02874952930000    2.58318962980000   -0.63947196700000
 H         1.13239996410000    2.16176307130000    1.08433312790000
 H         0.63875218340000   -1.52377506510000    1.07763562740000
$end

$rem
 BASIS = 6-31G*
 GUI = 2
 METHOD = B3LYP
 PRINT_ORBITALS false
 MOLDEN_FORMAT false
$end