$molecule
0 1
 C         4.01765716400000    0.69939741310000   -0.28911359140000
 C         3.34445061720000   -0.43354926150000   -0.12811969360000
 C         1.89919315210000   -0.57223338290000   -0.00331180540000
 C         1.34565797950000   -1.83862028520000    0.21538613000000
 C        -0.01427824560000   -2.01035524400000    0.34791515690000
 C        -0.90913890450000   -0.94413534560000    0.22742411680000
 C        -2.33885295020000   -1.23111318900000    0.40737988910000
 C        -3.28991582580000   -1.03648443670000   -0.49132961280000
 C        -0.35098026280000    0.32229245370000    0.01833572990000
 N        -1.14742684380000    1.52348705870000   -0.03394496400000
 O        -2.22918544130000    1.49059838310000   -0.57731596330000
 O        -0.66223674990000    2.51534965830000    0.47258810880000
 C         1.02270756650000    0.50361874970000   -0.07755328700000
 H         5.09073873060000    0.70213056880000   -0.37077273770000
 H         3.53969854430000    1.66216280590000   -0.34235422280000
 H         3.88918284090000   -1.36806282770000   -0.07645637470000
 H         1.99956597390000   -2.69519565820000    0.29252869880000
 H        -0.41472447190000   -2.99596732560000    0.53477134840000
 H        -2.57213377900000   -1.71433993220000    1.34948155480000
 H        -3.09247736110000   -0.59845272510000   -1.45325865580000
 H        -4.31039178500000   -1.31265640450000   -0.28850551500000
 H         1.38962930340000    1.50854706060000   -0.21653616100000
$end

$rem
 BASIS = 6-31G*
 GUI = 2
 METHOD = B3LYP
 PRINT_ORBITALS false
 MOLDEN_FORMAT false
$end