$molecule
0 1
 C         3.39307241150000    0.80603296170000   -0.23930196900000
 C         2.62126152070000   -0.08838181750000    0.36617599420000
 C         1.18370393440000   -0.27958717820000    0.16831025200000
 C         0.70983408230000   -1.58881546410000    0.16965790810000
 C        -0.62421838640000   -1.83838125800000   -0.06719803750000
 F        -1.06452291010000   -3.11999933930000   -0.09990219960000
 C        -1.52423699740000   -0.81122398360000   -0.26625213650000
 C        -1.08895411250000    0.50555381960000   -0.19580129790000
 C        -2.10389271370000    1.56198077250000   -0.33354996010000
 C        -2.29571276920000    2.56011007220000    0.51682271430000
 C         0.27735227720000    0.78742782420000    0.00001082740000
 N         0.72749084550000    2.08631807100000   -0.03703687690000
 H         4.45219514140000    0.84869198750000   -0.04705263970000
 H         3.01418283660000    1.48977886170000   -0.97951803270000
 H         3.07625742240000   -0.80181081250000    1.04381125460000
 H         1.38994334190000   -2.41227168440000    0.32318939970000
 H        -2.56588109740000   -1.03315321250000   -0.43874553080000
 H        -2.76882830890000    1.44899446370000   -1.18136519050000
 H        -1.70169199090000    2.67982141540000    1.40945636010000
 H        -3.08205609080000    3.28165526370000    0.37320526880000
 H         0.01942976900000    2.79873789760000    0.02919740520000
 H         1.58935280250000    2.27422916410000    0.44901747420000
$end

$rem
 BASIS = 6-31G*
 GUI = 2
 METHOD = B3LYP
 PRINT_ORBITALS false
 MOLDEN_FORMAT false
$end