$molecule
0 1
 C         1.76751526740000    1.92618244920000   -0.35256985360000
 C         1.70945019590000    0.80110029500000    0.34604053930000
 C         0.70855235130000   -0.23963072860000    0.18911457650000
 C         1.01691496490000   -1.62804740020000    0.25285047290000
 C        -0.13398773630000   -2.29297115830000   -0.02440935910000
 O        -1.13665434770000   -1.43211898460000   -0.24156072270000
 C        -0.64300014440000   -0.17352747940000   -0.10691200660000
 C        -1.61692145770000    0.88603738170000   -0.21707155450000
 C        -1.48564414810000    2.13631010200000    0.21340439260000
 H         2.56465119140000    2.63596402200000   -0.21128423030000
 H         1.02756514810000    2.17131308040000   -1.09537868320000
 H         2.49560877960000    0.56255902030000    1.05253928880000
 H         1.97727331990000   -2.05497516960000    0.45961741160000
 H        -0.36062009650000   -3.33891285710000   -0.09144788180000
 H        -2.55059561630000    0.55839164010000   -0.65750127650000
 H        -0.58752625700000    2.48582465810000    0.69065024320000
 H        -2.28767368080000    2.84552958210000    0.10695258130000
$end

$rem
 BASIS = 6-31G*
 GUI = 2
 METHOD = B3LYP
 PRINT_ORBITALS false
 MOLDEN_FORMAT false
$end