$molecule
0 1
 C        -3.53401922510000    1.42177794340000   -0.38320858210000
 C        -2.36873753330000    1.66355507080000    0.19930389820000
 C        -1.16555768980000    0.82855871190000    0.13558604670000
 C         0.04554032100000    1.48674168310000   -0.08066246070000
 C         1.25653273510000    0.82700015520000   -0.17870070080000
 C         2.50672314630000    1.62825827290000   -0.42348054990000
 C         3.13157928070000    2.07841539610000    0.89910836240000
 C         1.27443154770000   -0.56600781300000   -0.02305449690000
 C         2.51868351800000   -1.33223954240000   -0.09374932200000
 C         2.61542239570000   -2.57190003220000   -0.55526979190000
 C         0.07103352410000   -1.21800357600000    0.22729757910000
 C        -1.14706419050000   -0.55985736120000    0.30515555080000
 C        -2.37386997020000   -1.37657378500000    0.60690061280000
 C        -2.81309896870000   -2.19496187190000   -0.60877141070000
 H        -4.35586883270000    2.11388492050000   -0.30212648870000
 H        -3.71121131530000    0.54548759130000   -0.98158021560000
 H        -2.23589381120000    2.59352784930000    0.74134569790000
 H         0.02919140440000    2.56235224940000   -0.19941999610000
 H         2.25553963500000    2.51263270860000   -1.01344277070000
 H         3.22888736450000    1.04314085440000   -0.99458476520000
 H         2.42823505770000    2.69299275420000    1.45669581390000
 H         4.03240652940000    2.66041125330000    0.71639368500000
 H         3.39159855130000    1.22076864520000    1.51558592200000
 H         3.41106728120000   -0.83130128400000    0.25616301170000
 H         1.76534441480000   -3.10718434110000   -0.94421221080000
 H         3.55629018010000   -3.09536102080000   -0.57778155430000
 H         0.08984453660000   -2.28532790090000    0.39609369890000
 H        -3.18884460020000   -0.72849170840000    0.92997390480000
 H        -2.14529172550000   -2.06499550910000    1.42524148700000
 H        -3.01924701210000   -1.54676552590000   -1.45758347470000
 H        -3.71192571960000   -2.76341260640000   -0.37947501470000
 H        -2.02984540420000   -2.88997617100000   -0.90254402350000
$end

$rem
 BASIS = 6-31G*
 GUI = 2
 METHOD = B3LYP
 PRINT_ORBITALS false
 MOLDEN_FORMAT false
$end