$molecule
0 1
 C        -1.50280913970000   -3.47871232080000    0.52878342660000
 C        -2.14959216110000   -2.32531740460000    0.68004755740000
 C        -1.67312210480000   -1.04287972940000    0.23647092210000
 C        -0.53867675260000   -0.71530702080000   -0.46042079290000
 C        -0.37702760990000    0.66143363440000   -0.70815112370000
 C         0.82250669660000    1.18292410820000   -1.43481039720000
 C         1.93699328340000    1.60443360970000   -0.46441666630000
 C         2.48391657580000    0.44980111160000    0.37564131660000
 C         3.32519543610000   -0.53876473000000   -0.42962727690000
 C         3.84113019120000   -1.70395598730000    0.41663036710000
 C         2.75249907970000   -2.71247642030000    0.76659841700000
 C        -1.41522535610000    1.41327567180000   -0.19532934340000
 C        -1.72207936650000    2.81999280580000   -0.21072377930000
 C        -0.94149682290000    3.84112735200000   -0.55780060730000
 S        -2.59034064520000    0.38699558430000    0.58602660220000
 H        -1.91900236290000   -4.40368600510000    0.88648373480000
 H        -0.54199479360000   -3.53923927140000    0.04816516400000
 H        -3.11113202260000   -2.30866456980000    1.17689593790000
 H         0.16776637890000   -1.45118157120000   -0.80023585480000
 H         0.53917584610000    2.03462011210000   -2.05533117540000
 H         1.19749740940000    0.40180666180000   -2.09804385400000
 H         1.54212012980000    2.36517624290000    0.21256557830000
 H         2.75233682900000    2.05295687380000   -1.03752129720000
 H         1.64887103460000   -0.06778500100000    0.84938042580000
 H         3.10712910610000    0.86481157530000    1.17194991840000
 H         4.17758156770000   -0.00375443280000   -0.85655444280000
 H         2.74194681130000   -0.94115624000000   -1.25983214790000
 H         4.28469106060000   -1.31350466520000    1.33528122430000
 H         4.62966253700000   -2.21987774320000   -0.13681117750000
 H         1.95457953070000   -2.24834960520000    1.34092043000000
 H         3.16606306900000   -3.52597245770000    1.35849186350000
 H         2.32488995160000   -3.13693895940000   -0.14005126590000
 H        -2.72989556820000    3.03819007280000    0.12425078470000
 H         0.07914190830000    3.73204664200000   -0.87247731830000
 H        -1.31997752140000    4.84851016120000   -0.52413027530000
$end

$rem
 BASIS = 6-31G*
 GUI = 2
 METHOD = B3LYP
 PRINT_ORBITALS false
 MOLDEN_FORMAT false
$end