$molecule
0 1
 C           -1.98022032700000        3.97851152820000        0.21473380500000
 C           -2.48405488790000        2.75490150460000        0.11089126170000
 C           -1.73854150070000        1.50103463630000        0.10570420660000
 C           -2.42687789320000        0.31139721180000       -0.14367606660000
 C           -1.78862396870000       -0.91662114840000       -0.15129908140000
 C           -2.51941003770000       -2.19960473790000       -0.39356383990000
 C           -0.41832578950000       -0.93545851100000        0.08519885740000
 F            0.20110090280000       -2.13321216610000        0.13380300270000
 C            0.31534632010000        0.22483806500000        0.32079081860000
 C            1.75679124050000        0.21072909980000        0.56502374520000
 C            2.64107041660000       -0.55943584700000       -0.04766122260000
 F            2.41788224640000       -1.42386850170000       -1.02228767110000
 F            3.94570235150000       -0.51977156990000        0.21391719000000
 C           -0.36956830200000        1.43571155090000        0.34485093440000
 H           -2.61705630250000        4.84608971630000        0.20540845960000
 H           -0.92541221650000        4.17159579850000        0.30691158210000
 H           -3.55571133500000        2.63750178520000        0.00803247010000
 H           -3.49083238520000        0.34662555880000       -0.32887736330000
 H           -3.57302616790000       -2.01535548320000       -0.58267005310000
 H           -2.42261571270000       -2.85560652460000        0.47074967090000
 H           -2.08920988500000       -2.72074645320000       -1.24767597430000
 H            2.14338891860000        0.91169510960000        1.28912517790000
 H            0.18916374370000        2.33547133980000        0.54638449240000
$end

$rem
 BASIS = 6-31G*
 GUI = 2
 METHOD = B3LYP
 PRINT_ORBITALS false
 MOLDEN_FORMAT false
$end