$molecule
0 1
 C         3.44641713770000    1.72647513110000    0.03780492840000
 C         2.95381051070000    0.53971693900000   -0.29589369370000
 C         1.57182089680000    0.11614960020000   -0.11148455140000
 C         0.52507130030000    1.03413591600000   -0.03702768530000
 C        -0.79052925440000    0.63152323740000    0.13741694580000
 C        -1.85216663960000    1.62432178180000    0.30646971840000
 C        -1.93153663610000    2.76040850510000   -0.37286241560000
 C        -1.01885454100000   -0.76106911870000    0.17928397220000
 N        -2.25855078910000   -1.34192434690000    0.28864328240000
 N        -3.44152564280000   -0.79683523110000   -0.25367544060000
 N        -0.02141569170000   -1.64089183710000    0.13529296900000
 C         1.23138624480000   -1.24054713220000    0.01570727180000
 C         2.25991796170000   -2.32954407440000    0.02821676500000
 H         4.48018356670000    1.97387639770000   -0.13297497140000
 H         2.84906756950000    2.49031133940000    0.50649696080000
 H         3.61307590850000   -0.19806441310000   -0.73365002130000
 H         0.73718762800000    2.09109175810000   -0.09756918780000
 H        -2.58865158780000    1.40049843280000    1.06859149460000
 H        -1.22398368110000    3.01019723070000   -1.14611289960000
 H        -2.71465345370000    3.47652255630000   -0.19123785900000
 H        -2.21312511070000   -2.34801255170000    0.16476877350000
 H        -3.23183917070000   -0.15578878710000   -1.01701424800000
 H        -3.94876077510000   -0.28268047140000    0.46374153410000
 H         1.76727526840000   -3.27744228370000    0.22395083690000
 H         3.00621059160000   -2.14401758220000    0.79831111510000
 H         2.76678420520000   -2.38883136620000   -0.93431919720000
$end

$rem
 BASIS = 6-31G*
 GUI = 2
 METHOD = B3LYP
 PRINT_ORBITALS false
 MOLDEN_FORMAT false
$end