$molecule
0 1
 C        -0.15255002620000    2.97341735630000    0.38708476730000
 C        -0.51541474800000    1.92822343710000   -0.34263703750000
 C         0.04055241270000    0.58882222400000   -0.20868471280000
 C        -0.71305165230000   -0.55410765540000   -0.27629281380000
 C        -2.13973698880000   -0.71864988150000   -0.40329051400000
 C        -3.08298029790000    0.08405075390000    0.07167007930000
 F        -2.92674276170000    1.18400462170000    0.79567823750000
 F        -4.38323529300000   -0.14164420490000   -0.10397773540000
 S         0.24779644330000   -2.01631143080000   -0.17507510620000
 C         1.70479991250000   -1.08032807080000   -0.03361085920000
 C         2.99264630770000   -1.57990158250000    0.08870185590000
 C         4.03918047200000   -0.68426755640000    0.15203870290000
 C         3.80400856470000    0.68827011570000    0.07608438960000
 C         2.52504481010000    1.18362401290000   -0.04237987050000
 C         1.44180867440000    0.30191687740000   -0.07720693560000
 H        -0.59644075030000    3.94208773160000    0.23691700260000
 H         0.56918805090000    2.89243319940000    1.18196373370000
 H        -1.28982387840000    2.03303932890000   -1.09318025590000
 H        -2.48514319650000   -1.61356145830000   -0.90101498520000
 H         3.16199953920000   -2.64474597590000    0.12579462390000
 H         5.05046342210000   -1.04916044630000    0.24795461800000
 H         4.64041679720000    1.37042989440000    0.10611398790000
 H         2.35171766160000    2.24527114680000   -0.12215541560000
$end

$rem
 BASIS = 6-31G*
 GUI = 2
 METHOD = B3LYP
 PRINT_ORBITALS false
 MOLDEN_FORMAT false
$end