$molecule
0 1
 C         3.68192474340000   -1.14602724800000    0.15156035210000
 C         2.45582297560000   -1.61055599220000   -0.05237782070000
 C         1.22198114580000   -0.83096287960000   -0.04483424610000
 C         1.21232478900000    0.56148992310000   -0.02594268570000
 C         0.00013709350000    1.24638175320000   -0.01928911010000
 C         0.00052215250000    2.66160731220000   -0.00802008280000
 N         0.00062147730000    3.80788769150000    0.00296616320000
 C        -1.21225299890000    0.56181711600000   -0.02579238820000
 C        -1.22226827590000   -0.83063111440000   -0.04475851840000
 C        -2.45631152800000   -1.60990521420000   -0.05261875160000
 C        -3.68225976670000   -1.14516766310000    0.15161289940000
 C        -0.00022570660000   -1.50213444240000   -0.06369845120000
 H         4.53677645130000   -1.79979842110000    0.13246693960000
 H         3.88859257750000   -0.10856391500000    0.35174337170000
 H         2.31661860500000   -2.66996944270000   -0.22998085150000
 H         2.13361998780000    1.12265686360000   -0.02942736070000
 H        -2.13338134490000    1.12325129200000   -0.02943952100000
 H        -2.31740691770000   -2.66921260510000   -0.23094152810000
 H        -3.88862318510000   -0.10778577940000    0.35226139970000
 H        -4.53721298430000   -1.79877682330000    0.13286285820000
 H        -0.00040562510000   -2.58361003990000   -0.08370025690000
$end

$rem
 BASIS = 6-31G*
 GUI = 2
 METHOD = B3LYP
 PRINT_ORBITALS false
 MOLDEN_FORMAT false
$end