$molecule
0 1
 C        -0.69789730190000    3.28239899940000   -0.49321124640000
 C         0.21915736170000    2.57702101380000    0.15734356690000
 C         0.36733536350000    1.13217868300000    0.10769039380000
 C        -0.66244229070000    0.22044470640000    0.08610144610000
 C        -2.05982212520000    0.51876817260000    0.22284125590000
 C        -3.06614160540000   -0.32995099170000    0.04851168690000
 F        -2.98509299010000   -1.60030645120000   -0.32487053860000
 F        -4.34344097540000    0.00303517270000    0.21802069670000
 S        -0.10152522720000   -1.43621009970000   -0.00072268310000
 C         1.55346512230000   -0.90645592130000    0.00384568260000
 C         2.67796019530000   -1.71621776810000   -0.05296243330000
 C         3.91935527660000   -1.11568779420000   -0.04155974220000
 C         4.03796554950000    0.27284982540000    0.01968645360000
 C         2.92233989030000    1.07741427640000    0.07086793530000
 C         1.65189620580000    0.49558042790000    0.07105861870000
 H        -0.74096259430000    4.35501283500000   -0.41202062630000
 H        -1.41357713680000    2.82344674100000   -1.15412098430000
 H         0.96023771250000    3.08818895530000    0.75922414820000
 H        -2.31811593010000    1.52612385390000    0.51394008670000
 H         2.57398759550000   -2.78873558600000   -0.10485107440000
 H         4.80882791820000   -1.72576201190000   -0.08294039430000
 H         5.02080664350000    0.71987328190000    0.02371356680000
 H         3.02244187160000    2.15144922970000    0.10819079870000
$end

$rem
 BASIS = 6-31G*
 GUI = 2
 METHOD = B3LYP
 PRINT_ORBITALS false
 MOLDEN_FORMAT false
$end