$molecule
0 1
C           -4.52729762440000       -0.43473663090000        0.56047588990000
C           -3.64671655660000        0.33101538640000       -0.07033291180000
C           -2.20438450830000        0.09967290950000       -0.09687552250000
C           -1.69747956580000       -1.19725543660000       -0.05308058290000
C           -0.34229281400000       -1.47175325120000       -0.08539590370000
C            0.12830024910000       -2.89479545380000       -0.02729785920000
C            0.55844343480000       -0.39741825070000       -0.16174721350000
C            1.99050584420000       -0.65630165400000       -0.21107781060000
C            2.97554863630000        0.18328854630000        0.06819167820000
F            2.89218983030000        1.44446389000000        0.47920739830000
F            4.26432717110000       -0.15473914150000       -0.01520544480000
C            0.05281280450000        0.90177035440000       -0.21052903910000
C           -1.30353311840000        1.17088969940000       -0.18243327680000
C           -1.78222203350000        2.59102941080000       -0.22408401280000
H           -5.58144368990000       -0.21654547830000        0.54053566090000
H           -4.23165397240000       -1.29497288750000        1.13747657130000
H           -3.99384805360000        1.20589075240000       -0.60379109910000
H           -2.39441772530000       -2.02154939750000       -0.01147278340000
H           -0.71750780730000       -3.56680243770000        0.09336506250000
H            0.80866104590000       -3.04558025330000        0.80947885630000
H            0.64919662700000       -3.16882835700000       -0.94475553340000
H            2.30934032780000       -1.64646198250000       -0.49840950170000
H            0.73808200590000        1.73128282260000       -0.28562058410000
H           -0.94046289070000        3.27742223180000       -0.18280929880000
H           -2.44246753560000        2.79962428590000        0.61616633230000
H           -2.33504704500000        2.78345523720000       -1.14384151370000
$end

$rem
BASIS = 6-31G*
GUI = 2
METHOD = B3LYP
PRINT_ORBITALS false
MOLDEN_FORMAT false
$end
