$molecule
0 1
 C        -2.17179237150000   -3.12943874890000   -0.00284524870000
 C        -2.21126880300000   -1.84466155340000   -0.33465586380000
 C        -1.10367232300000   -0.91530119040000   -0.14616866280000
 C         0.21596658600000   -1.36316021200000   -0.15893711430000
 C         1.29274428310000   -0.50584676640000    0.00991812950000
 C         2.65132988640000   -1.12787989450000   -0.07582810080000
 O         2.87086397280000   -2.24978901050000    0.28514338620000
 O         3.62272331610000   -0.38008345460000   -0.62935052170000
 C         1.07458280150000    0.86495404390000    0.22785428460000
 C         2.16625064270000    1.79673815460000    0.52882452710000
 C         2.22364776450000    3.05049263430000    0.09824769170000
 C        -0.24023243250000    1.32089363730000    0.21252338110000
 C        -1.31807413780000    0.46491025990000    0.01774023220000
 C        -2.70158057590000    1.03028858130000    0.07257974250000
 O        -3.62820983090000    0.49470451990000    0.61030346860000
 O        -2.85530955930000    2.22728165410000   -0.52874700610000
 H        -3.02193414660000   -3.77027556290000   -0.15805275660000
 H        -1.30998757750000   -3.58306841910000    0.45722148940000
 H        -3.12124688560000   -1.42537861800000   -0.73867230930000
 H         0.42849987650000   -2.40849077500000   -0.32084281720000
 H         3.31962549560000    0.50486624430000   -0.87914287680000
 H         2.95276296320000    1.41048595840000    1.16582672920000
 H         1.47368640300000    3.47012952330000   -0.55230377850000
 H         3.03537993660000    3.70225239340000    0.36977597510000
 H        -0.41655456350000    2.36700325140000    0.42663671420000
 H        -2.04501679450000    2.53662988910000   -0.95481444840000
$end

$rem
 BASIS = 6-31G*
 GUI = 2
 METHOD = B3LYP
 PRINT_ORBITALS false
 MOLDEN_FORMAT false
$end